cpu-bind=MASK - n2lcn0163, task  8  0 [771283]: mask 0x|BBBBBBBB|BBBBBBBB||--------|--------||--------|--------||--------|--------||||--------|--------||--------|--------||--------|--------||--------|--------| set
cpu-bind=MASK - n2lcn0163, task  9  1 [771284]: mask 0x|--------|--------||BBBBBBBB|BBBBBBBB||--------|--------||--------|--------||||--------|--------||--------|--------||--------|--------||--------|--------| set
cpu-bind=MASK - n2lcn0163, task 10  2 [771285]: mask 0x|--------|--------||--------|--------||BBBBBBBB|BBBBBBBB||--------|--------||||--------|--------||--------|--------||--------|--------||--------|--------| set
cpu-bind=MASK - n2lcn0163, task 11  3 [771286]: mask 0x|--------|--------||--------|--------||--------|--------||BBBBBBBB|BBBBBBBB||||--------|--------||--------|--------||--------|--------||--------|--------| set
cpu-bind=MASK - n2lcn0163, task 12  4 [771287]: mask 0x|--------|--------||--------|--------||--------|--------||--------|--------||||BBBBBBBB|BBBBBBBB||--------|--------||--------|--------||--------|--------| set
cpu-bind=MASK - n2lcn0163, task 13  5 [771288]: mask 0x|--------|--------||--------|--------||--------|--------||--------|--------||||--------|--------||BBBBBBBB|BBBBBBBB||--------|--------||--------|--------| set
cpu-bind=MASK - n2lcn0163, task 14  6 [771289]: mask 0x|--------|--------||--------|--------||--------|--------||--------|--------||||--------|--------||--------|--------||BBBBBBBB|BBBBBBBB||--------|--------| set
cpu-bind=MASK - n2lcn0163, task 15  7 [771290]: mask 0x|--------|--------||--------|--------||--------|--------||--------|--------||||--------|--------||--------|--------||--------|--------||BBBBBBBB|BBBBBBBB| set
cpu-bind=MASK - n2lcn0162, task  0  0 [854651]: mask 0x|BBBBBBBB|BBBBBBBB||--------|--------||--------|--------||--------|--------||||--------|--------||--------|--------||--------|--------||--------|--------| set
cpu-bind=MASK - n2lcn0162, task  1  1 [854652]: mask 0x|--------|--------||BBBBBBBB|BBBBBBBB||--------|--------||--------|--------||||--------|--------||--------|--------||--------|--------||--------|--------| set
cpu-bind=MASK - n2lcn0162, task  2  2 [854653]: mask 0x|--------|--------||--------|--------||BBBBBBBB|BBBBBBBB||--------|--------||||--------|--------||--------|--------||--------|--------||--------|--------| set
cpu-bind=MASK - n2lcn0162, task  3  3 [854654]: mask 0x|--------|--------||--------|--------||--------|--------||BBBBBBBB|BBBBBBBB||||--------|--------||--------|--------||--------|--------||--------|--------| set
cpu-bind=MASK - n2lcn0162, task  4  4 [854655]: mask 0x|--------|--------||--------|--------||--------|--------||--------|--------||||BBBBBBBB|BBBBBBBB||--------|--------||--------|--------||--------|--------| set
cpu-bind=MASK - n2lcn0162, task  5  5 [854656]: mask 0x|--------|--------||--------|--------||--------|--------||--------|--------||||--------|--------||BBBBBBBB|BBBBBBBB||--------|--------||--------|--------| set
cpu-bind=MASK - n2lcn0162, task  6  6 [854657]: mask 0x|--------|--------||--------|--------||--------|--------||--------|--------||||--------|--------||--------|--------||BBBBBBBB|BBBBBBBB||--------|--------| set
cpu-bind=MASK - n2lcn0162, task  7  7 [854658]: mask 0x|--------|--------||--------|--------||--------|--------||--------|--------||||--------|--------||--------|--------||--------|--------||BBBBBBBB|BBBBBBBB| set
 DBCSR| CPU Multiplication driver                                           XSMM (U)
 DBCSR| Multrec recursion limit                                              512 (U)
 DBCSR| Multiplication stack size                                           1000 (D)
 DBCSR| Maximum elements for images                                    UNLIMITED (U)
 DBCSR| Multiplicative factor virtual images                                   1 (U)
 DBCSR| Use multiplication densification                                       T (D)
 DBCSR| Multiplication size stacks                                             3 (U)
 DBCSR| Use memory pool for CPU allocation                                     F (U)
 DBCSR| Number of 3D layers                                               SINGLE (U)
 DBCSR| Use MPI memory allocation                                              F (U)
 DBCSR| Use RMA algorithm                                                      F (U)
 DBCSR| Use Communication thread                                               T (U)
 DBCSR| Communication thread load                                             30 (D)
 DBCSR| MPI: My process id                                                     0
 DBCSR| MPI: Number of processes                                              16
 DBCSR| OMP: Current number of threads                                        16
 DBCSR| OMP: Max number of threads                                            16
 DBCSR| Split modifier for TAS multiplication algorithm                  1.0E+00 (U)


  **** **** ******  **  PROGRAM STARTED AT               2026-09-29 01:34:21.334
 ***** ** ***  *** **   PROGRAM STARTED ON                             n2lcn0162
 **    ****   ******    PROGRAM STARTED BY                              metdyn07
 ***** **    ** ** **   PROGRAM PROCESS ID                                854651
  **** **  *******  **  PROGRAM STARTED IN /scratch/hpc-prf-metdyn/metdyn07_Rita
                                           j/otus/max-nanographene/8

 CP2K| version string:                 CP2K version 2026.2 (Development Version)
 CP2K| source code revision number:                                   0005d2399e
 CP2K| cp2kflags: omp libint fftw3 libxc elpa parallel scalapack mpi_f08 cosma l
 CP2K|            ibxs libxsmm plumed2 spglib openblas sirius libvori libbqb lib
 CP2K|            bvdwxc hdf5 greenx
 CP2K| is freely available from                            https://www.cp2k.org/
 CP2K| Program compiled at                                   2026-09-14 14:16:23
 CP2K| Program compiled on                                              n2login5
 CP2K| Program compiled for                                               x86_64
 CP2K| Data directory path    /pc2/groups/hpc-prf-metdyn/metdyn07_Ritaj/implemen
 CP2K| Input file name                                                 input.inp

 GLOBAL| Force Environment number                                              1
 GLOBAL| Basis set file name             BASIS_GTH_MOLOPT_AUG_for_excited_states
 GLOBAL| Potential file name                                      GTH_POTENTIALS
 GLOBAL| MM Potential file name                                     MM_POTENTIAL
 GLOBAL| Coordinate file name                                          struc.xyz
 GLOBAL| Method name                                                        CP2K
 GLOBAL| Project name                                                      rec_4
 GLOBAL| Run type                                                 RT_PROPAGATION
 GLOBAL| FFT library                                                       FFTW3
 GLOBAL| Diagonalization library                                            ELPA
 GLOBAL| Cholesky decomposition library                                ScaLAPACK
 GLOBAL| DGEMM library                                                      BLAS
 GLOBAL| Minimum number of eigenvectors for ELPA usage                        64
 GLOBAL| Orthonormality check for eigenvectors                          DISABLED
 GLOBAL| Matrix multiplication library                                     COSMA
 GLOBAL| All-to-all communication in single precision                          F
 GLOBAL| Grid backend                                                       AUTO
 GLOBAL| Global print level                                               MEDIUM
 GLOBAL| MPI I/O enabled                                                       T
 GLOBAL| Total number of message passing processes                            16
 GLOBAL| Number of distributed systems (nodes)                                 2
 GLOBAL| Number of threads for this process                                   16
 GLOBAL| This output is from process                                           0
 GLOBAL| OpenMP stack size per thread (OMP_STACKSIZE)                    default
 GLOBAL| CPU model name                          AMD EPYC 7763 64-Core Processor
 GLOBAL| CPUID                                                              1002
 GLOBAL| Compiled for CPUID                                                    0

 *** HINT in environment.F:968 :: The compiler target (generic) used to ***
 *** build this binary does not enable all instruction-set extensions   ***
 *** available on this CPU (x86_avx2). Consider reconfiguring and       ***
 *** rebuilding CP2K for this target system to enable them.             ***


 MEMORY| system memory details [Kb]
 MEMORY|                        rank 0           min           max       average
 MEMORY| MemTotal           1056620484    1056620484    1056620484    1056620484
 MEMORY| MemFree            1039746052    1039746052    1040452608    1040099330
 MEMORY| Buffers                157968         59836        157968        108902
 MEMORY| Cached                7808792       6770120       7808792       7289456
 MEMORY| Slab                  2187408       2187408       2536844       2362126
 MEMORY| SReclaimable           590284        590284        737056        663670
 MEMORY| MemLikelyFree      1048303096    1048019620    1048303096    1048161358


 *** Fundamental physical constants (SI units) ***

 *** Literature: B. J. Mohr and B. N. Taylor,
 ***             CODATA recommended values of the fundamental physical
 ***             constants: 2006, Web Version 5.1
 ***             http://physics.nist.gov/constants

 Speed of light in vacuum [m/s]                             2.99792458000000E+08
 Magnetic constant or permeability of vacuum [N/A**2]       1.25663706143592E-06
 Electric constant or permittivity of vacuum [F/m]          8.85418781762039E-12
 Planck constant (h) [J*s]                                  6.62606896000000E-34
 Planck constant (h-bar) [J*s]                              1.05457162825177E-34
 Elementary charge [C]                                      1.60217648700000E-19
 Electron mass [kg]                                         9.10938215000000E-31
 Electron g factor [ ]                                     -2.00231930436220E+00
 Proton mass [kg]                                           1.67262163700000E-27
 Fine-structure constant                                    7.29735253760000E-03
 Rydberg constant [1/m]                                     1.09737315685270E+07
 Avogadro constant [1/mol]                                  6.02214179000000E+23
 Boltzmann constant [J/K]                                   1.38065040000000E-23
 Atomic mass unit [kg]                                      1.66053878200000E-27
 Bohr radius [m]                                            5.29177208590000E-11

 *** Conversion factors ***

 [u] -> [a.u.]                                              1.82288848426455E+03
 [Angstrom] -> [Bohr] = [a.u.]                              1.88972613288564E+00
 [a.u.] = [Bohr] -> [Angstrom]                              5.29177208590000E-01
 [a.u.] -> [s]                                              2.41888432650478E-17
 [a.u.] -> [fs]                                             2.41888432650478E-02
 [a.u.] -> [J]                                              4.35974393937059E-18
 [a.u.] -> [N]                                              8.23872205491840E-08
 [a.u.] -> [K]                                              3.15774647902944E+05
 [a.u.] -> [kJ/mol]                                         2.62549961709828E+03
 [a.u.] -> [kcal/mol]                                       6.27509468713739E+02
 [a.u.] -> [Pa]                                             2.94210107994716E+13
 [a.u.] -> [bar]                                            2.94210107994716E+08
 [a.u.] -> [atm]                                            2.90362800883016E+08
 [a.u.] -> [eV]                                             2.72113838565563E+01
 [a.u.] -> [Hz]                                             6.57968392072181E+15
 [a.u.] -> [1/cm] (wave numbers)                            2.19474631370540E+05
 [a.u./Bohr**2] -> [1/cm]                                   5.14048714338585E+03
 

 CELL| Volume [angstrom^3]:                                          9942.972270
 CELL| Vector a [angstrom]:      19.190     0.000     0.000   |a| =    19.190000
 CELL| Vector b [angstrom]:       0.000    44.860     0.000   |b| =    44.860000
 CELL| Vector c [angstrom]:       0.000     0.000    11.550   |c| =    11.550000
 CELL| Angle (b,c), alpha [degree]:                                    90.000000
 CELL| Angle (a,c), beta  [degree]:                                    90.000000
 CELL| Angle (a,b), gamma [degree]:                                    90.000000
 CELL| Numerically orthorhombic:                                             YES
 CELL| Periodicity                                                          NONE

 CELL_REF| Volume [angstrom^3]:                                      9942.972270
 CELL_REF| Vector a [angstrom    19.190     0.000     0.000   |a| =    19.190000
 CELL_REF| Vector b [angstrom     0.000    44.860     0.000   |b| =    44.860000
 CELL_REF| Vector c [angstrom     0.000     0.000    11.550   |c| =    11.550000
 CELL_REF| Angle (b,c), alpha [degree]:                                90.000000
 CELL_REF| Angle (a,c), beta  [degree]:                                90.000000
 CELL_REF| Angle (a,b), gamma [degree]:                                90.000000
 CELL_REF| Numerically orthorhombic:                                         YES
 CELL_REF| Periodicity                                                      NONE

 GENERATE|  Preliminary Number of Bonds generated:                             0
 GENERATE|  Achieved consistency in connectivity generation.

 PW_GRID| Information for grid number                                          1
 PW_GRID| Cutoff [a.u.]                                                      1.6
 PW_GRID| spherical cutoff:                                                   NO
 PW_GRID|   Bounds   1              0      49                Points:          50
 PW_GRID|   Bounds   2              0      49                Points:          50
 PW_GRID|   Bounds   3              0      49                Points:          50
 PW_GRID| Volume element (a.u.^3)  0.5368         Volume (a.u.^3)     67098.5036
 PW_GRID| Grid span                                                    HALFSPACE

 *******************************************************************************
 *******************************************************************************
 **                                                                           **
 **     #####                         ##              ##                      **
 **    ##   ##            ##          ##              ##                      **
 **   ##     ##                       ##            ######                    **
 **   ##     ##  ##   ##  ##   #####  ##  ##   ####   ##    #####    #####    **
 **   ##     ##  ##   ##  ##  ##      ## ##   ##      ##   ##   ##  ##   ##   **
 **   ##  ## ##  ##   ##  ##  ##      ####     ###    ##   ######   ######    **
 **    ##  ###   ##   ##  ##  ##      ## ##      ##   ##   ##       ##        **
 **     #######   #####   ##   #####  ##  ##  ####    ##    #####   ##        **
 **           ##                                                    ##        **
 **                                                                           **
 **                                                ... make the atoms dance   **
 **                                                                           **
 **            Copyright (C) by CP2K developers group (2000-2026)             **
 **                      J. Chem. Phys. 152, 194103 (2020)                    **
 **                                                                           **
 *******************************************************************************

 DFT| Spin restricted Kohn-Sham (RKS) calculation                            RKS
 DFT| Multiplicity                                                             1
 DFT| Number of spin states                                                    1
 DFT| Charge                                                                   0
 DFT| Self-interaction correction (SIC)                                       NO
 DFT| Cutoffs: density                                              1.000000E-10
 DFT|          gradient                                             1.000000E-10
 DFT|          tau                                                  1.000000E-10
 DFT|          cutoff_smoothing_range                               0.000000E+00
 DFT| XC density smoothing                                                  NONE
 DFT| XC derivatives                                                          PW

 FUNCTIONAL| PBE:
 FUNCTIONAL| J.P.Perdew, K.Burke, M.Ernzerhof, Phys. Rev. Letter, vol. 77, n 18,
 FUNCTIONAL|  pp. 3865-3868, (1996) {spin unpolarized}                          


 QS| Method:                                                                 GPW
 QS| Density plane wave grid type                        NON-SPHERICAL FULLSPACE
 QS| Number of grid levels:                                                    4
 QS| Density cutoff [a.u.]:                                                300.0
 QS| Multi grid cutoff [a.u.]: 1) grid level                               300.0
 QS|                           2) grid level                               100.0
 QS|                           3) grid level                                33.3
 QS|                           4) grid level                                11.1
 QS| Grid level progression factor:                                          3.0
 QS| Relative density cutoff [a.u.]:                                        30.0
 QS| Interaction thresholds: eps_pgf_orb:                                3.2E-08
 QS|                         eps_filter_matrix:                          0.0E+00
 QS|                         eps_core_charge:                            1.0E-17
 QS|                         eps_rho_gspace:                             1.0E-15
 QS|                         eps_rho_rspace:                             1.0E-15
 QS|                         eps_gvg_rspace:                             3.2E-08
 QS|                         eps_ppl:                                    1.0E-02
 QS|                         eps_ppnl:                                   3.2E-10


 ATOMIC KIND INFORMATION

  1. Atomic kind: H                                     Number of atoms:      40

     Orbital Basis Set                                 aug-SZV-MOLOPT-GTH-tier-2

       Number of orbital shell sets:                                           1
       Number of orbital shells:                                               4
       Number of primitive Cartesian functions:                                7
       Number of Cartesian basis functions:                                    6
       Number of spherical basis functions:                                    6
       Norm type:                                                              2

       Normalised Cartesian orbitals:

                        Set   Shell   Orbital            Exponent    Coefficient

                          1       1    2s                0.050000       0.000000
                                                         0.082193      -0.014019
                                                         0.239116      -0.107525
                                                         0.450000       0.000000
                                                         0.791502      -0.258419
                                                         2.680223      -0.177618
                                                        10.068468      -0.133023

                          1       2    3s                0.050000       0.064974
                                                         0.082193       0.029198
                                                         0.239116      -0.007574
                                                         0.450000      -0.090795
                                                         0.791502      -0.025739
                                                         2.680223       0.000002
                                                        10.068468       0.000000

                          1       3    4s                0.050000      -0.067626
                                                         0.082193       0.244167
                                                         0.239116      -0.094768
                                                         0.450000      -0.043967
                                                         0.791502      -0.043572
                                                         2.680223      -0.153771
                                                        10.068468       0.000000

                          1       4    3px               0.050000       0.038628
                                                         0.082193      -0.015554
                                                         0.239116       0.034455
                                                         0.450000       0.013474
                                                         0.791502      -0.005076
                                                         2.680223       0.028739
                                                        10.068468       0.000000
                          1       4    3py               0.050000       0.038628
                                                         0.082193      -0.015554
                                                         0.239116       0.034455
                                                         0.450000       0.013474
                                                         0.791502      -0.005076
                                                         2.680223       0.028739
                                                        10.068468       0.000000
                          1       4    3pz               0.050000       0.038628
                                                         0.082193      -0.015554
                                                         0.239116       0.034455
                                                         0.450000       0.013474
                                                         0.791502      -0.005076
                                                         2.680223       0.028739
                                                        10.068468       0.000000

     RI Auxiliary Basis Set             RI_aug-SZV-MOLOPT-GTH-tier-2_N_RI_005_s_

       Number of orbital shell sets:                                           3
       Number of orbital shells:                                               3
       Number of primitive Cartesian functions:                                3
       Number of Cartesian basis functions:                                    5
       Number of spherical basis functions:                                    5
       Norm type:                                                              2

       Normalised Cartesian orbitals:

                        Set   Shell   Orbital            Exponent    Coefficient

                          1       1    1s                0.184491       0.200628

                          2       1    2s                3.030559       1.637013

                          3       1    3px               0.610174       0.768701
                          3       1    3py               0.610174       0.768701
                          3       1    3pz               0.610174       0.768701

       Atomic covalent radius [Angstrom]:                                  0.320

       Atomic van der Waals radius [Angstrom]:                             1.090

     GTH Potential information for                                    GTH-PBE-q1

       Description:                       Goedecker-Teter-Hutter pseudopotential
                                           Goedecker et al., PRB 54, 1703 (1996)
                                          Hartwigsen et al., PRB 58, 3641 (1998)
                                                      Krack, TCA 114, 145 (2005)

       Gaussian exponent of the core charge distribution:              12.500000
       Electronic configuration (s p d ...):                                   1

       Parameters of the local part of the GTH pseudopotential:

                          rloc        C1          C2          C3          C4
                        0.200000   -4.178900    0.724463

  2. Atomic kind: C                                     Number of atoms:     112

     Orbital Basis Set                                 aug-SZV-MOLOPT-GTH-tier-2

       Number of orbital shell sets:                                           1
       Number of orbital shells:                                               5
       Number of primitive Cartesian functions:                                6
       Number of Cartesian basis functions:                                   14
       Number of spherical basis functions:                                   13
       Norm type:                                                              2

       Normalised Cartesian orbitals:

                        Set   Shell   Orbital            Exponent    Coefficient

                          1       1    2s                0.070000       0.000000
                                                         0.128212      -0.022789
                                                         0.348157      -0.219794
                                                         0.769911      -0.209686
                                                         2.113016       0.213043
                                                         5.605331       0.322515

                          1       2    3s                0.070000       0.133509
                                                         0.128212      -0.041206
                                                         0.348157      -0.081784
                                                         0.769911      -0.003005
                                                         2.113016       0.000000
                                                         5.605331       0.000000

                          1       3    3px               0.070000       0.000000
                                                         0.128212      -0.027849
                                                         0.348157      -0.139743
                                                         0.769911      -0.374851
                                                         2.113016      -0.642521
                                                         5.605331      -0.703879
                          1       3    3py               0.070000       0.000000
                                                         0.128212      -0.027849
                                                         0.348157      -0.139743
                                                         0.769911      -0.374851
                                                         2.113016      -0.642521
                                                         5.605331      -0.703879
                          1       3    3pz               0.070000       0.000000
                                                         0.128212      -0.027849
                                                         0.348157      -0.139743
                                                         0.769911      -0.374851
                                                         2.113016      -0.642521
                                                         5.605331      -0.703879

                          1       4    4px               0.070000       0.033242
                                                         0.128212       0.023307
                                                         0.348157       0.113522
                                                         0.769911      -0.094955
                                                         2.113016       0.000000
                                                         5.605331       0.000000
                          1       4    4py               0.070000       0.033242
                                                         0.128212       0.023307
                                                         0.348157       0.113522
                                                         0.769911      -0.094955
                                                         2.113016       0.000000
                                                         5.605331       0.000000
                          1       4    4pz               0.070000       0.033242
                                                         0.128212       0.023307
                                                         0.348157       0.113522
                                                         0.769911      -0.094955
                                                         2.113016       0.000000
                                                         5.605331       0.000000

                          1       5    4dx2              0.070000      -0.000111
                                                         0.128212       0.037828
                                                         0.348157       0.043639
                                                         0.769911       0.120124
                                                         2.113016       0.000000
                                                         5.605331       0.000000
                          1       5    4dxy              0.070000      -0.000193
                                                         0.128212       0.065520
                                                         0.348157       0.075585
                                                         0.769911       0.208061
                                                         2.113016       0.000000
                                                         5.605331       0.000000
                          1       5    4dxz              0.070000      -0.000193
                                                         0.128212       0.065520
                                                         0.348157       0.075585
                                                         0.769911       0.208061
                                                         2.113016       0.000000
                                                         5.605331       0.000000
                          1       5    4dy2              0.070000      -0.000111
                                                         0.128212       0.037828
                                                         0.348157       0.043639
                                                         0.769911       0.120124
                                                         2.113016       0.000000
                                                         5.605331       0.000000
                          1       5    4dyz              0.070000      -0.000193
                                                         0.128212       0.065520
                                                         0.348157       0.075585
                                                         0.769911       0.208061
                                                         2.113016       0.000000
                                                         5.605331       0.000000
                          1       5    4dz2              0.070000      -0.000111
                                                         0.128212       0.037828
                                                         0.348157       0.043639
                                                         0.769911       0.120124
                                                         2.113016       0.000000
                                                         5.605331       0.000000

     RI Auxiliary Basis Set             RI_aug-SZV-MOLOPT-GTH-tier-2_N_RI_030_s_

       Number of orbital shell sets:                                          10
       Number of orbital shells:                                              10
       Number of primitive Cartesian functions:                               10
       Number of Cartesian basis functions:                                   35
       Number of spherical basis functions:                                   30
       Norm type:                                                              2

       Normalised Cartesian orbitals:

                        Set   Shell   Orbital            Exponent    Coefficient

                          1       1    1s                0.191848       0.206599

                          2       1    2s                0.736300       0.566502

                          3       1    3s                2.917592       1.591031

                          4       1    4s                9.448168       3.840792

                          5       1    5px               0.281885       0.292772
                          5       1    5py               0.281885       0.292772
                          5       1    5pz               0.281885       0.292772

                          6       1    6px               0.984576       1.397983
                          6       1    6py               0.984576       1.397983
                          6       1    6pz               0.984576       1.397983

                          7       1    7px               2.475409       4.425871
                          7       1    7py               2.475409       4.425871
                          7       1    7pz               2.475409       4.425871

                          8       1    8dx2              0.347629       0.259037
                          8       1    8dxy              0.347629       0.448666
                          8       1    8dxz              0.347629       0.448666
                          8       1    8dy2              0.347629       0.259037
                          8       1    8dyz              0.347629       0.448666
                          8       1    8dz2              0.347629       0.259037

                          9       1    9dx2              1.822216       4.703911
                          9       1    9dxy              1.822216       8.147414
                          9       1    9dxz              1.822216       8.147414
                          9       1    9dy2              1.822216       4.703911
                          9       1    9dyz              1.822216       8.147414
                          9       1    9dz2              1.822216       4.703911

                         10       1   10fx3              0.497967       0.306659
                         10       1   10fx2y             0.497967       0.685710
                         10       1   10fx2z             0.497967       0.685710
                         10       1   10fxy2             0.497967       0.685710
                         10       1   10fxyz             0.497967       1.187685
                         10       1   10fxz2             0.497967       0.685710
                         10       1   10fy3              0.497967       0.306659
                         10       1   10fy2z             0.497967       0.685710
                         10       1   10fyz2             0.497967       0.685710
                         10       1   10fz3              0.497967       0.306659

       Atomic covalent radius [Angstrom]:                                  0.770

       Atomic van der Waals radius [Angstrom]:                             1.700

     GTH Potential information for                                    GTH-PBE-q4

       Description:                       Goedecker-Teter-Hutter pseudopotential
                                           Goedecker et al., PRB 54, 1703 (1996)
                                          Hartwigsen et al., PRB 58, 3641 (1998)
                                                      Krack, TCA 114, 145 (2005)

       Gaussian exponent of the core charge distribution:               4.364419
       Electronic configuration (s p d ...):                               2   2

       Parameters of the local part of the GTH pseudopotential:

                          rloc        C1          C2          C3          C4
                        0.338471   -8.803674    1.339211

       Parameters of the non-local part of the GTH pseudopotential:

                   l      r(l)      h(i,j,l)

                   0    0.302576    9.622487
                   1    0.291507


 MOLECULE KIND INFORMATION


 All atoms are their own molecule, skipping detailed information


 TOTAL NUMBERS AND MAXIMUM NUMBERS

  Total number of            - Atomic kinds:                                   2
                             - Atoms:                                        152
                             - Shell sets:                                   152
                             - Shells:                                       720
                             - Primitive Cartesian functions:                952
                             - Cartesian basis functions:                   1808
                             - Spherical basis functions:                   1696

  Maximum angular momentum of- Orbital basis functions:                        2
                             - Local part of the GTH pseudopotential:          2
                             - Non-local part of the GTH pseudopotential:      0


 MODULE QUICKSTEP: ATOMIC COORDINATES IN ANGSTROM

   Atom Kind Element         X             Y             Z       Z(eff)     Mass
      1    1 H     1      7.154329      4.998893      5.775000   1.0000   1.0079
      2    1 H     1     12.035671      4.998893      5.775000   1.0000   1.0079
      3    1 H     1      9.595000      5.310139      6.548044   1.0000   1.0079
      4    1 H     1      9.595000      5.310139      5.001956   1.0000   1.0079
      5    2 C     6      9.595000      6.083183      5.775000   4.0000  12.0107
      6    2 C     6      7.154329      6.092143      5.775000   4.0000  12.0107
      7    2 C     6     12.035671      6.092143      5.775000   4.0000  12.0107
      8    1 H     1     14.191809      6.306846      5.775000   1.0000   1.0079
      9    1 H     1      4.998191      6.306846      5.775000   1.0000   1.0079
     10    2 C     6     10.818523      6.796368      5.775000   4.0000  12.0107
     11    2 C     6      8.371477      6.796368      5.775000   4.0000  12.0107
     12    2 C     6     13.230017      6.826614      5.775000   4.0000  12.0107
     13    2 C     6      5.959983      6.826614      5.775000   4.0000  12.0107
     14    2 C     6      5.959983      8.184968      5.775000   4.0000  12.0107
     15    2 C     6     13.230017      8.184968      5.775000   4.0000  12.0107
     16    2 C     6     10.818523      8.215213      5.775000   4.0000  12.0107
     17    2 C     6      8.371477      8.215213      5.775000   4.0000  12.0107
     18    1 H     1      4.998191      8.704735      5.775000   1.0000   1.0079
     19    1 H     1     14.191809      8.704735      5.775000   1.0000   1.0079
     20    2 C     6      7.154329      8.919438      5.775000   4.0000  12.0107
     21    2 C     6     12.035671      8.919438      5.775000   4.0000  12.0107
     22    2 C     6      9.595000      8.928398      5.775000   4.0000  12.0107
     23    2 C     6      9.595000     10.347243      5.775000   4.0000  12.0107
     24    2 C     6      7.154329     10.356203      5.775000   4.0000  12.0107
     25    2 C     6     12.035671     10.356203      5.775000   4.0000  12.0107
     26    1 H     1      4.998191     10.570906      5.775000   1.0000   1.0079
     27    1 H     1     14.191809     10.570906      5.775000   1.0000   1.0079
     28    2 C     6     10.818523     11.060428      5.775000   4.0000  12.0107
     29    2 C     6      8.371477     11.060428      5.775000   4.0000  12.0107
     30    2 C     6     13.230017     11.090673      5.775000   4.0000  12.0107
     31    2 C     6      5.959983     11.090673      5.775000   4.0000  12.0107
     32    2 C     6      5.959983     12.449028      5.775000   4.0000  12.0107
     33    2 C     6     13.230017     12.449028      5.775000   4.0000  12.0107
     34    2 C     6      8.371477     12.479273      5.775000   4.0000  12.0107
     35    2 C     6     10.818523     12.479273      5.775000   4.0000  12.0107
     36    1 H     1     14.191809     12.968795      5.775000   1.0000   1.0079
     37    1 H     1      4.998191     12.968795      5.775000   1.0000   1.0079
     38    2 C     6     12.035671     13.183498      5.775000   4.0000  12.0107
     39    2 C     6      7.154329     13.183498      5.775000   4.0000  12.0107
     40    2 C     6      9.595000     13.192458      5.775000   4.0000  12.0107
     41    2 C     6      9.595000     14.611303      5.775000   4.0000  12.0107
     42    2 C     6      7.154329     14.620263      5.775000   4.0000  12.0107
     43    2 C     6     12.035671     14.620263      5.775000   4.0000  12.0107
     44    1 H     1      4.998191     14.834966      5.775000   1.0000   1.0079
     45    1 H     1     14.191809     14.834966      5.775000   1.0000   1.0079
     46    2 C     6      8.371477     15.324488      5.775000   4.0000  12.0107
     47    2 C     6     10.818523     15.324488      5.775000   4.0000  12.0107
     48    2 C     6     13.230017     15.354733      5.775000   4.0000  12.0107
     49    2 C     6      5.959983     15.354733      5.775000   4.0000  12.0107
     50    2 C     6     13.230017     16.713087      5.775000   4.0000  12.0107
     51    2 C     6      5.959983     16.713087      5.775000   4.0000  12.0107
     52    2 C     6      8.371477     16.743333      5.775000   4.0000  12.0107
     53    2 C     6     10.818523     16.743333      5.775000   4.0000  12.0107
     54    1 H     1     14.191809     17.232855      5.775000   1.0000   1.0079
     55    1 H     1      4.998191     17.232855      5.775000   1.0000   1.0079
     56    2 C     6      7.154329     17.447558      5.775000   4.0000  12.0107
     57    2 C     6     12.035671     17.447558      5.775000   4.0000  12.0107
     58    2 C     6      9.595000     17.456518      5.775000   4.0000  12.0107
     59    2 C     6      9.595000     18.875363      5.775000   4.0000  12.0107
     60    2 C     6     12.035671     18.884323      5.775000   4.0000  12.0107
     61    2 C     6      7.154329     18.884323      5.775000   4.0000  12.0107
     62    1 H     1      4.998191     19.099026      5.775000   1.0000   1.0079
     63    1 H     1     14.191809     19.099026      5.775000   1.0000   1.0079
     64    2 C     6      8.371477     19.588548      5.775000   4.0000  12.0107
     65    2 C     6     10.818523     19.588548      5.775000   4.0000  12.0107
     66    2 C     6     13.230017     19.618793      5.775000   4.0000  12.0107
     67    2 C     6      5.959983     19.618793      5.775000   4.0000  12.0107
     68    2 C     6      5.959983     20.977147      5.775000   4.0000  12.0107
     69    2 C     6     13.230017     20.977147      5.775000   4.0000  12.0107
     70    2 C     6      8.371477     21.007393      5.775000   4.0000  12.0107
     71    2 C     6     10.818523     21.007393      5.775000   4.0000  12.0107
     72    1 H     1      4.998191     21.496915      5.775000   1.0000   1.0079
     73    1 H     1     14.191809     21.496915      5.775000   1.0000   1.0079
     74    2 C     6      7.154329     21.711618      5.775000   4.0000  12.0107
     75    2 C     6     12.035671     21.711618      5.775000   4.0000  12.0107
     76    2 C     6      9.595000     21.720578      5.775000   4.0000  12.0107
     77    2 C     6      9.595000     23.139423      5.775000   4.0000  12.0107
     78    2 C     6     12.035671     23.148382      5.775000   4.0000  12.0107
     79    2 C     6      7.154329     23.148382      5.775000   4.0000  12.0107
     80    1 H     1     14.191809     23.363085      5.775000   1.0000   1.0079
     81    1 H     1      4.998191     23.363085      5.775000   1.0000   1.0079
     82    2 C     6      8.371477     23.852607      5.775000   4.0000  12.0107
     83    2 C     6     10.818523     23.852607      5.775000   4.0000  12.0107
     84    2 C     6     13.230017     23.882853      5.775000   4.0000  12.0107
     85    2 C     6      5.959983     23.882853      5.775000   4.0000  12.0107
     86    2 C     6      5.959983     25.241207      5.775000   4.0000  12.0107
     87    2 C     6     13.230017     25.241207      5.775000   4.0000  12.0107
     88    2 C     6     10.818523     25.271452      5.775000   4.0000  12.0107
     89    2 C     6      8.371477     25.271452      5.775000   4.0000  12.0107
     90    1 H     1     14.191809     25.760974      5.775000   1.0000   1.0079
     91    1 H     1      4.998191     25.760974      5.775000   1.0000   1.0079
     92    2 C     6     12.035671     25.975677      5.775000   4.0000  12.0107
     93    2 C     6      7.154329     25.975677      5.775000   4.0000  12.0107
     94    2 C     6      9.595000     25.984637      5.775000   4.0000  12.0107
     95    2 C     6      9.595000     27.403482      5.775000   4.0000  12.0107
     96    2 C     6     12.035671     27.412442      5.775000   4.0000  12.0107
     97    2 C     6      7.154329     27.412442      5.775000   4.0000  12.0107
     98    1 H     1      4.998191     27.627145      5.775000   1.0000   1.0079
     99    1 H     1     14.191809     27.627145      5.775000   1.0000   1.0079
    100    2 C     6     10.818523     28.116667      5.775000   4.0000  12.0107
    101    2 C     6      8.371477     28.116667      5.775000   4.0000  12.0107
    102    2 C     6     13.230017     28.146913      5.775000   4.0000  12.0107
    103    2 C     6      5.959983     28.146913      5.775000   4.0000  12.0107
    104    2 C     6     13.230017     29.505267      5.775000   4.0000  12.0107
    105    2 C     6      5.959983     29.505267      5.775000   4.0000  12.0107
    106    2 C     6     10.818523     29.535512      5.775000   4.0000  12.0107
    107    2 C     6      8.371477     29.535512      5.775000   4.0000  12.0107
    108    1 H     1     14.191809     30.025034      5.775000   1.0000   1.0079
    109    1 H     1      4.998191     30.025034      5.775000   1.0000   1.0079
    110    2 C     6     12.035671     30.239737      5.775000   4.0000  12.0107
    111    2 C     6      7.154329     30.239737      5.775000   4.0000  12.0107
    112    2 C     6      9.595000     30.248697      5.775000   4.0000  12.0107
    113    2 C     6      9.595000     31.667542      5.775000   4.0000  12.0107
    114    2 C     6     12.035671     31.676502      5.775000   4.0000  12.0107
    115    2 C     6      7.154329     31.676502      5.775000   4.0000  12.0107
    116    1 H     1      4.998191     31.891205      5.775000   1.0000   1.0079
    117    1 H     1     14.191809     31.891205      5.775000   1.0000   1.0079
    118    2 C     6     10.818523     32.380727      5.775000   4.0000  12.0107
    119    2 C     6      8.371477     32.380727      5.775000   4.0000  12.0107
    120    2 C     6     13.230017     32.410972      5.775000   4.0000  12.0107
    121    2 C     6      5.959983     32.410972      5.775000   4.0000  12.0107
    122    2 C     6      5.959983     33.769327      5.775000   4.0000  12.0107
    123    2 C     6     13.230017     33.769327      5.775000   4.0000  12.0107
    124    2 C     6      8.371477     33.799572      5.775000   4.0000  12.0107
    125    2 C     6     10.818523     33.799572      5.775000   4.0000  12.0107
    126    1 H     1      4.998191     34.289094      5.775000   1.0000   1.0079
    127    1 H     1     14.191809     34.289094      5.775000   1.0000   1.0079
    128    2 C     6     12.035671     34.503797      5.775000   4.0000  12.0107
    129    2 C     6      7.154329     34.503797      5.775000   4.0000  12.0107
    130    2 C     6      9.595000     34.512757      5.775000   4.0000  12.0107
    131    2 C     6      9.595000     35.931602      5.775000   4.0000  12.0107
    132    2 C     6      7.154329     35.940562      5.775000   4.0000  12.0107
    133    2 C     6     12.035671     35.940562      5.775000   4.0000  12.0107
    134    1 H     1     14.191809     36.155265      5.775000   1.0000   1.0079
    135    1 H     1      4.998191     36.155265      5.775000   1.0000   1.0079
    136    2 C     6      8.371477     36.644787      5.775000   4.0000  12.0107
    137    2 C     6     10.818523     36.644787      5.775000   4.0000  12.0107
    138    2 C     6     13.230017     36.675032      5.775000   4.0000  12.0107
    139    2 C     6      5.959983     36.675032      5.775000   4.0000  12.0107
    140    2 C     6     13.230017     38.033386      5.775000   4.0000  12.0107
    141    2 C     6      5.959983     38.033386      5.775000   4.0000  12.0107
    142    2 C     6      8.371477     38.063632      5.775000   4.0000  12.0107
    143    2 C     6     10.818523     38.063632      5.775000   4.0000  12.0107
    144    1 H     1      4.998191     38.553154      5.775000   1.0000   1.0079
    145    1 H     1     14.191809     38.553154      5.775000   1.0000   1.0079
    146    2 C     6      7.154329     38.767857      5.775000   4.0000  12.0107
    147    2 C     6     12.035671     38.767857      5.775000   4.0000  12.0107
    148    2 C     6      9.595000     38.776817      5.775000   4.0000  12.0107
    149    1 H     1      9.595000     39.549861      6.548044   1.0000   1.0079
    150    1 H     1      9.595000     39.549861      5.001956   1.0000   1.0079
    151    1 H     1      7.154329     39.861107      5.775000   1.0000   1.0079
    152    1 H     1     12.035671     39.861107      5.775000   1.0000   1.0079



 SCF PARAMETERS         Density guess:                                   RESTART
                        --------------------------------------------------------
                        max_scf:                                             300
                        max_scf_history:                                       0
                        max_diis:                                              4
                        --------------------------------------------------------
                        eps_scf:                                        1.00E-07
                        eps_scf_history:                                0.00E+00
                        eps_diis:                                       1.00E-01
                        eps_eigval:                                     1.00E-05
                        --------------------------------------------------------
                        level_shift [a.u.]:                             0.000000
                        SCF update method:                                MIXING
                        added MOs                                       100    0
                        --------------------------------------------------------
                        Mixing method:                            BROYDEN_MIXING
                                                charge density mixing in g-space
                        --------------------------------------------------------
                        No outer SCF

 PW_GRID| Information for grid number                                          2
 PW_GRID| Grid distributed over                                    16 processors
 PW_GRID| Real space group dimensions                                    16    1
 PW_GRID| the grid is blocked:                                                NO
 PW_GRID| Cutoff [a.u.]                                                    300.0
 PW_GRID| spherical cutoff:                                                   NO
 PW_GRID|   Bounds   1           -144     143                Points:         288
 PW_GRID|   Bounds   2           -337     337                Points:         675
 PW_GRID|   Bounds   3            -90      89                Points:         180
 PW_GRID| Volume element (a.u.^3)  0.1918E-02     Volume (a.u.^3)     67098.5036
 PW_GRID| Grid span                                                    FULLSPACE
 PW_GRID|   Distribution                         Average         Max         Min
 PW_GRID|   G-Vectors                          2187000.0     2187072     2186784
 PW_GRID|   G-Rays                                7593.8        7594        7593
 PW_GRID|   Real Space Points                  2187000.0     2187000     2187000

 PW_GRID| Information for grid number                                          3
 PW_GRID| Number of the reference grid                                         2
 PW_GRID| Grid distributed over                                    16 processors
 PW_GRID| Real space group dimensions                                    16    1
 PW_GRID| the grid is blocked:                                                NO
 PW_GRID| Cutoff [a.u.]                                                    100.0
 PW_GRID| spherical cutoff:                                                   NO
 PW_GRID|   Bounds   1            -90      89                Points:         180
 PW_GRID|   Bounds   2           -192     191                Points:         384
 PW_GRID|   Bounds   3            -50      49                Points:         100
 PW_GRID| Volume element (a.u.^3)  0.9708E-02     Volume (a.u.^3)     67098.5036
 PW_GRID| Grid span                                                    FULLSPACE
 PW_GRID|   Distribution                         Average         Max         Min
 PW_GRID|   G-Vectors                           432000.0      432720      431460
 PW_GRID|   G-Rays                                2400.0        2404        2397
 PW_GRID|   Real Space Points                   432000.0      460800      422400

 PW_GRID| Information for grid number                                          4
 PW_GRID| Number of the reference grid                                         2
 PW_GRID| Grid distributed over                                    16 processors
 PW_GRID| Real space group dimensions                                    16    1
 PW_GRID| the grid is blocked:                                                NO
 PW_GRID| Cutoff [a.u.]                                                     33.3
 PW_GRID| spherical cutoff:                                                   NO
 PW_GRID|   Bounds   1            -48      47                Points:          96
 PW_GRID|   Bounds   2           -112     112                Points:         225
 PW_GRID|   Bounds   3            -30      29                Points:          60
 PW_GRID| Volume element (a.u.^3)  0.5177E-01     Volume (a.u.^3)     67098.5036
 PW_GRID| Grid span                                                    FULLSPACE
 PW_GRID|   Distribution                         Average         Max         Min
 PW_GRID|   G-Vectors                            81000.0       81216       80640
 PW_GRID|   G-Rays                                 843.8         846         840
 PW_GRID|   Real Space Points                    81000.0       81000       81000

 PW_GRID| Information for grid number                                          5
 PW_GRID| Number of the reference grid                                         2
 PW_GRID| Grid distributed over                                    16 processors
 PW_GRID| Real space group dimensions                                    16    1
 PW_GRID| the grid is blocked:                                                NO
 PW_GRID| Cutoff [a.u.]                                                     11.1
 PW_GRID| spherical cutoff:                                                   NO
 PW_GRID|   Bounds   1            -30      29                Points:          60
 PW_GRID|   Bounds   2            -64      63                Points:         128
 PW_GRID|   Bounds   3            -18      17                Points:          36
 PW_GRID| Volume element (a.u.^3)  0.2427         Volume (a.u.^3)     67098.5036
 PW_GRID| Grid span                                                    FULLSPACE
 PW_GRID|   Distribution                         Average         Max         Min
 PW_GRID|   G-Vectors                            17280.0       17520       17040
 PW_GRID|   G-Rays                                 288.0         292         284
 PW_GRID|   Real Space Points                    17280.0       18432       13824

 POISSON| Solver                                             MULTIPOLE (Bloechl)
 POISSON| Periodicity                                                       NONE

 RS_GRID| Information for grid number                                          2
 RS_GRID|   Bounds   1           -144     143                Points:         288
 RS_GRID|   Bounds   2           -337     337                Points:         675
 RS_GRID|   Bounds   3            -90      89                Points:         180
 RS_GRID| Real space distribution over                                 16 groups
 RS_GRID| Real space distribution along direction                              2
 RS_GRID| Border size                                                         30
 RS_GRID|   Distribution                         Average         Max         Min
 RS_GRID|   Planes                                 102.2         103         102

 RS_GRID| Information for grid number                                          3
 RS_GRID|   Bounds   1            -90      89                Points:         180
 RS_GRID|   Bounds   2           -192     191                Points:         384
 RS_GRID|   Bounds   3            -50      49                Points:         100
 RS_GRID| Real space distribution over                                 16 groups
 RS_GRID| Real space distribution along direction                              2
 RS_GRID| Border size                                                         33
 RS_GRID|   Distribution                         Average         Max         Min
 RS_GRID|   Planes                                  90.0          90          90

 RS_GRID| Information for grid number                                          4
 RS_GRID|   Bounds   1            -48      47                Points:          96
 RS_GRID|   Bounds   2           -112     112                Points:         225
 RS_GRID|   Bounds   3            -30      29                Points:          60
 RS_GRID| Real space fully replicated
 RS_GRID| Group size                                                           1

 RS_GRID| Information for grid number                                          5
 RS_GRID|   Bounds   1            -30      29                Points:          60
 RS_GRID|   Bounds   2            -64      63                Points:         128
 RS_GRID|   Bounds   3            -18      17                Points:          36
 RS_GRID| Real space fully replicated
 RS_GRID| Group size                                                           1

 *** WARNING in emd/rt_bse_linearized.F:131 :: Linearized RT-BSE is under ***
 *** active development. Make sure you understand the method and validate ***
 *** results before using it for production calculations.                 ***


 Extrapolation method: initial_guess

 Number of electrons:                                                        488
 Number of occupied orbitals:                                                244
 Number of molecular orbitals:                                               344

 Number of orbital functions:                                               1696
 Number of independent orbital functions:                                   1696


 SCF WAVEFUNCTION OPTIMIZATION

  Step     Update method      Time    Convergence         Total energy    Change
  ------------------------------------------------------------------------------
  Decoupling Energy:                                              -0.0001454769
     1 NoMix/Diag. 0.40E+00    1.2     0.00000034      -660.8599568375 -6.61E+02
  Decoupling Energy:                                              -0.0001454772
     2 Broy./Diag. 0.40E+00    1.3     0.00000019      -660.8599616271 -4.79E-06
  Decoupling Energy:                                              -0.0001454776
     3 Broy./Diag. 0.40E+00    1.3     0.00000003      -660.8599590208  2.61E-06

  *** SCF run converged in     3 steps ***


  Electronic density on regular grids:       -488.0000000000       -0.0000000000
  Core density on regular grids:              488.0000000000       -0.0000000000
  Total charge density on r-space grids:       -0.0000000000
  Total charge density g-space grids:          -0.0000000000

  Overlap energy of the core charge distribution:               0.00003951157688
  Self energy of the core charge distribution:              -1549.93984615247928
  Core Hamiltonian energy:                                    491.48320302374373
  Hartree energy:                                             608.11957863897305
  Exchange-correlation energy:                               -210.52293404265535

  Total energy:                                              -660.85995902084096

 !-----------------------------------------------------------------------------!
                     Mulliken Population Analysis

 #  Atom  Element  Kind  Atomic population                           Net charge
       1     H        1          0.781505                              0.218495
       2     H        1          0.781505                              0.218495
       3     H        1          0.700458                              0.299542
       4     H        1          0.700458                              0.299542
       5     C        2          4.615351                             -0.615351
       6     C        2          4.201187                             -0.201187
       7     C        2          4.201187                             -0.201187
       8     H        1          0.768185                              0.231815
       9     H        1          0.768185                              0.231815
      10     C        2          4.049736                             -0.049736
      11     C        2          4.049736                             -0.049736
      12     C        2          4.245307                             -0.245307
      13     C        2          4.245307                             -0.245307
      14     C        2          4.162017                             -0.162017
      15     C        2          4.162017                             -0.162017
      16     C        2          3.963243                              0.036757
      17     C        2          3.963243                              0.036757
      18     H        1          0.809932                              0.190068
      19     H        1          0.809932                              0.190068
      20     C        2          4.083478                             -0.083478
      21     C        2          4.083478                             -0.083478
      22     C        2          3.965581                              0.034419
      23     C        2          3.966187                              0.033813
      24     C        2          4.059449                             -0.059449
      25     C        2          4.059449                             -0.059449
      26     H        1          0.803985                              0.196015
      27     H        1          0.803985                              0.196015
      28     C        2          3.981209                              0.018791
      29     C        2          3.981209                              0.018791
      30     C        2          4.138155                             -0.138155
      31     C        2          4.138155                             -0.138155
      32     C        2          4.140288                             -0.140288
      33     C        2          4.140288                             -0.140288
      34     C        2          3.983369                              0.016631
      35     C        2          3.983369                              0.016631
      36     H        1          0.813371                              0.186629
      37     H        1          0.813371                              0.186629
      38     C        2          4.069102                             -0.069102
      39     C        2          4.069102                             -0.069102
      40     C        2          3.969708                              0.030292
      41     C        2          3.971370                              0.028630
      42     C        2          4.068766                             -0.068766
      43     C        2          4.068766                             -0.068766
      44     H        1          0.812689                              0.187311
      45     H        1          0.812689                              0.187311
      46     C        2          3.986172                              0.013828
      47     C        2          3.986172                              0.013828
      48     C        2          4.139428                             -0.139428
      49     C        2          4.139428                             -0.139428
      50     C        2          4.140257                             -0.140257
      51     C        2          4.140257                             -0.140257
      52     C        2          3.986511                              0.013489
      53     C        2          3.986511                              0.013489
      54     H        1          0.813606                              0.186394
      55     H        1          0.813606                              0.186394
      56     C        2          4.071028                             -0.071028
      57     C        2          4.071028                             -0.071028
      58     C        2          3.972280                              0.027720
      59     C        2          3.972640                              0.027360
      60     C        2          4.070895                             -0.070895
      61     C        2          4.070895                             -0.070895
      62     H        1          0.813488                              0.186512
      63     H        1          0.813488                              0.186512
      64     C        2          3.987268                              0.012732
      65     C        2          3.987268                              0.012732
      66     C        2          4.140226                             -0.140226
      67     C        2          4.140226                             -0.140226
      68     C        2          4.140414                             -0.140414
      69     C        2          4.140414                             -0.140414
      70     C        2          3.987313                              0.012687
      71     C        2          3.987313                              0.012687
      72     H        1          0.813642                              0.186358
      73     H        1          0.813642                              0.186358
      74     C        2          4.071354                             -0.071354
      75     C        2          4.071354                             -0.071354
      76     C        2          3.972816                              0.027184
      77     C        2          3.972816                              0.027184
      78     C        2          4.071354                             -0.071354
      79     C        2          4.071354                             -0.071354
      80     H        1          0.813642                              0.186358
      81     H        1          0.813642                              0.186358
      82     C        2          3.987313                              0.012687
      83     C        2          3.987313                              0.012687
      84     C        2          4.140414                             -0.140414
      85     C        2          4.140414                             -0.140414
      86     C        2          4.140226                             -0.140226
      87     C        2          4.140226                             -0.140226
      88     C        2          3.987268                              0.012732
      89     C        2          3.987268                              0.012732
      90     H        1          0.813488                              0.186512
      91     H        1          0.813488                              0.186512
      92     C        2          4.070895                             -0.070895
      93     C        2          4.070895                             -0.070895
      94     C        2          3.972640                              0.027360
      95     C        2          3.972280                              0.027720
      96     C        2          4.071028                             -0.071028
      97     C        2          4.071028                             -0.071028
      98     H        1          0.813606                              0.186394
      99     H        1          0.813606                              0.186394
     100     C        2          3.986511                              0.013489
     101     C        2          3.986511                              0.013489
     102     C        2          4.140257                             -0.140257
     103     C        2          4.140257                             -0.140257
     104     C        2          4.139428                             -0.139428
     105     C        2          4.139428                             -0.139428
     106     C        2          3.986172                              0.013828
     107     C        2          3.986172                              0.013828
     108     H        1          0.812689                              0.187311
     109     H        1          0.812689                              0.187311
     110     C        2          4.068766                             -0.068766
     111     C        2          4.068766                             -0.068766
     112     C        2          3.971370                              0.028630
     113     C        2          3.969708                              0.030292
     114     C        2          4.069102                             -0.069102
     115     C        2          4.069102                             -0.069102
     116     H        1          0.813371                              0.186629
     117     H        1          0.813371                              0.186629
     118     C        2          3.983369                              0.016631
     119     C        2          3.983369                              0.016631
     120     C        2          4.140288                             -0.140288
     121     C        2          4.140288                             -0.140288
     122     C        2          4.138155                             -0.138155
     123     C        2          4.138155                             -0.138155
     124     C        2          3.981209                              0.018791
     125     C        2          3.981209                              0.018791
     126     H        1          0.803985                              0.196015
     127     H        1          0.803985                              0.196015
     128     C        2          4.059449                             -0.059449
     129     C        2          4.059449                             -0.059449
     130     C        2          3.966187                              0.033813
     131     C        2          3.965581                              0.034419
     132     C        2          4.083478                             -0.083478
     133     C        2          4.083478                             -0.083478
     134     H        1          0.809932                              0.190068
     135     H        1          0.809932                              0.190068
     136     C        2          3.963243                              0.036757
     137     C        2          3.963243                              0.036757
     138     C        2          4.162017                             -0.162017
     139     C        2          4.162017                             -0.162017
     140     C        2          4.245307                             -0.245307
     141     C        2          4.245307                             -0.245307
     142     C        2          4.049736                             -0.049736
     143     C        2          4.049736                             -0.049736
     144     H        1          0.768185                              0.231815
     145     H        1          0.768185                              0.231815
     146     C        2          4.201187                             -0.201187
     147     C        2          4.201187                             -0.201187
     148     C        2          4.615351                             -0.615351
     149     H        1          0.700458                              0.299542
     150     H        1          0.700458                              0.299542
     151     H        1          0.781505                              0.218495
     152     H        1          0.781505                              0.218495
 # Total charge                            488.000000                 -0.000000

 !-----------------------------------------------------------------------------!

 !-----------------------------------------------------------------------------!
                           Hirshfeld Charges

  #Atom  Element  Kind  Ref Charge     Population                    Net charge
      1       H      1       1.000          0.549                         0.451
      2       H      1       1.000          0.549                         0.451
      3       H      1       1.000          0.553                         0.447
      4       H      1       1.000          0.553                         0.447
      5       C      2       4.000          4.781                        -0.781
      6       C      2       4.000          4.470                        -0.470
      7       C      2       4.000          4.470                        -0.470
      8       H      1       1.000          0.551                         0.449
      9       H      1       1.000          0.551                         0.449
     10       C      2       4.000          4.006                        -0.006
     11       C      2       4.000          4.006                        -0.006
     12       C      2       4.000          4.446                        -0.446
     13       C      2       4.000          4.446                        -0.446
     14       C      2       4.000          4.455                        -0.455
     15       C      2       4.000          4.455                        -0.455
     16       C      2       4.000          4.007                        -0.007
     17       C      2       4.000          4.007                        -0.007
     18       H      1       1.000          0.555                         0.445
     19       H      1       1.000          0.555                         0.445
     20       C      2       4.000          3.995                         0.005
     21       C      2       4.000          3.995                         0.005
     22       C      2       4.000          4.003                        -0.003
     23       C      2       4.000          4.007                        -0.007
     24       C      2       4.000          3.999                         0.001
     25       C      2       4.000          3.999                         0.001
     26       H      1       1.000          0.555                         0.445
     27       H      1       1.000          0.555                         0.445
     28       C      2       4.000          4.000                        -0.000
     29       C      2       4.000          4.000                        -0.000
     30       C      2       4.000          4.445                        -0.445
     31       C      2       4.000          4.445                        -0.445
     32       C      2       4.000          4.447                        -0.447
     33       C      2       4.000          4.447                        -0.447
     34       C      2       4.000          4.001                        -0.001
     35       C      2       4.000          4.001                        -0.001
     36       H      1       1.000          0.555                         0.445
     37       H      1       1.000          0.555                         0.445
     38       C      2       4.000          3.997                         0.003
     39       C      2       4.000          3.997                         0.003
     40       C      2       4.000          4.001                        -0.001
     41       C      2       4.000          4.002                        -0.002
     42       C      2       4.000          3.998                         0.002
     43       C      2       4.000          3.998                         0.002
     44       H      1       1.000          0.555                         0.445
     45       H      1       1.000          0.555                         0.445
     46       C      2       4.000          4.000                        -0.000
     47       C      2       4.000          4.000                        -0.000
     48       C      2       4.000          4.445                        -0.445
     49       C      2       4.000          4.445                        -0.445
     50       C      2       4.000          4.445                        -0.445
     51       C      2       4.000          4.445                        -0.445
     52       C      2       4.000          4.000                        -0.000
     53       C      2       4.000          4.000                        -0.000
     54       H      1       1.000          0.555                         0.445
     55       H      1       1.000          0.555                         0.445
     56       C      2       4.000          3.998                         0.002
     57       C      2       4.000          3.998                         0.002
     58       C      2       4.000          4.001                        -0.001
     59       C      2       4.000          4.002                        -0.002
     60       C      2       4.000          3.998                         0.002
     61       C      2       4.000          3.998                         0.002
     62       H      1       1.000          0.555                         0.445
     63       H      1       1.000          0.555                         0.445
     64       C      2       4.000          4.000                        -0.000
     65       C      2       4.000          4.000                        -0.000
     66       C      2       4.000          4.445                        -0.445
     67       C      2       4.000          4.445                        -0.445
     68       C      2       4.000          4.445                        -0.445
     69       C      2       4.000          4.445                        -0.445
     70       C      2       4.000          4.000                        -0.000
     71       C      2       4.000          4.000                        -0.000
     72       H      1       1.000          0.555                         0.445
     73       H      1       1.000          0.555                         0.445
     74       C      2       4.000          3.998                         0.002
     75       C      2       4.000          3.998                         0.002
     76       C      2       4.000          4.001                        -0.001
     77       C      2       4.000          4.001                        -0.001
     78       C      2       4.000          3.998                         0.002
     79       C      2       4.000          3.998                         0.002
     80       H      1       1.000          0.555                         0.445
     81       H      1       1.000          0.555                         0.445
     82       C      2       4.000          4.000                        -0.000
     83       C      2       4.000          4.000                        -0.000
     84       C      2       4.000          4.445                        -0.445
     85       C      2       4.000          4.445                        -0.445
     86       C      2       4.000          4.445                        -0.445
     87       C      2       4.000          4.445                        -0.445
     88       C      2       4.000          4.000                        -0.000
     89       C      2       4.000          4.000                        -0.000
     90       H      1       1.000          0.555                         0.445
     91       H      1       1.000          0.555                         0.445
     92       C      2       4.000          3.998                         0.002
     93       C      2       4.000          3.998                         0.002
     94       C      2       4.000          4.002                        -0.002
     95       C      2       4.000          4.001                        -0.001
     96       C      2       4.000          3.998                         0.002
     97       C      2       4.000          3.998                         0.002
     98       H      1       1.000          0.555                         0.445
     99       H      1       1.000          0.555                         0.445
    100       C      2       4.000          4.000                        -0.000
    101       C      2       4.000          4.000                        -0.000
    102       C      2       4.000          4.445                        -0.445
    103       C      2       4.000          4.445                        -0.445
    104       C      2       4.000          4.445                        -0.445
    105       C      2       4.000          4.445                        -0.445
    106       C      2       4.000          4.000                        -0.000
    107       C      2       4.000          4.000                        -0.000
    108       H      1       1.000          0.555                         0.445
    109       H      1       1.000          0.555                         0.445
    110       C      2       4.000          3.998                         0.002
    111       C      2       4.000          3.998                         0.002
    112       C      2       4.000          4.002                        -0.002
    113       C      2       4.000          4.001                        -0.001
    114       C      2       4.000          3.997                         0.003
    115       C      2       4.000          3.997                         0.003
    116       H      1       1.000          0.555                         0.445
    117       H      1       1.000          0.555                         0.445
    118       C      2       4.000          4.001                        -0.001
    119       C      2       4.000          4.001                        -0.001
    120       C      2       4.000          4.447                        -0.447
    121       C      2       4.000          4.447                        -0.447
    122       C      2       4.000          4.445                        -0.445
    123       C      2       4.000          4.445                        -0.445
    124       C      2       4.000          4.000                        -0.000
    125       C      2       4.000          4.000                        -0.000
    126       H      1       1.000          0.555                         0.445
    127       H      1       1.000          0.555                         0.445
    128       C      2       4.000          3.999                         0.001
    129       C      2       4.000          3.999                         0.001
    130       C      2       4.000          4.007                        -0.007
    131       C      2       4.000          4.003                        -0.003
    132       C      2       4.000          3.995                         0.005
    133       C      2       4.000          3.995                         0.005
    134       H      1       1.000          0.555                         0.445
    135       H      1       1.000          0.555                         0.445
    136       C      2       4.000          4.007                        -0.007
    137       C      2       4.000          4.007                        -0.007
    138       C      2       4.000          4.455                        -0.455
    139       C      2       4.000          4.455                        -0.455
    140       C      2       4.000          4.446                        -0.446
    141       C      2       4.000          4.446                        -0.446
    142       C      2       4.000          4.006                        -0.006
    143       C      2       4.000          4.006                        -0.006
    144       H      1       1.000          0.551                         0.449
    145       H      1       1.000          0.551                         0.449
    146       C      2       4.000          4.470                        -0.470
    147       C      2       4.000          4.470                        -0.470
    148       C      2       4.000          4.781                        -0.781
    149       H      1       1.000          0.553                         0.447
    150       H      1       1.000          0.553                         0.447
    151       H      1       1.000          0.549                         0.451
    152       H      1       1.000          0.549                         0.451

  Total Charge                                                            0.098
 !-----------------------------------------------------------------------------!
  
 -------------------------------------------------------------------------------
 -                                                                             -
 -                          BANDSTRUCTURE CALCULATION                          -
 -                                                                             -
 -------------------------------------------------------------------------------
  
 Number of occupied molecular orbitals (MOs) = Number of occupied bands      244
 Number of unoccupied (= virtual) MOs = Number of unoccupied bands          1452
 Number of Gaussian basis functions for MOs                                 1696
  
 -------------------------------------------------------------------------------
 -                                                                             -
 -                                GW CALCULATION                               -
 -                                                                             -
 -------------------------------------------------------------------------------
  
 Input: Number of time/freq. points                                           30
 Input: ω_max for fitting Σ(iω) (eV)                                        10.0
 Input: Filter threshold for sparse tensor operations                    1.0E-10
 Input: Apply Hedin shift                                                      F
 Detected: Available memory per MPI process                             108.2 GB
 
 Input: RI-RS Tikhonov regularization                                   1.00E-08
 Input: AO grid hard cutoff radius                                        7.00 Å
 Input: MPI ranks per atom in Z_lP solve                                      -1
 Input: Keep sparsity in χ/G/W panels                                          T
 Input: GW flavour                                                          G0W0
 
 Input: RI-RS grid optimization activated                                      T
 Input: Element: H, number of points per atom:                                27
 Input: Element: C, number of points per atom:                                67
 Input: Cutoff radius for atomic clusters                                  3.0 Å
 Input: Maximum grid optimization iterations                                 200
 
 Cutoff radius for the truncated Coulomb operator in RI metric:            7.0 Å
 Regularization parameter of RI                                          0.0E+00
 Regularization parameter of minimax grids                               1.0E-06
  
 Number of auxiliary Gaussian basis functions for χ, ε, W                   3560
  Decoupling Energy:                                              -0.0001454846
 
 SCF direct band gap (eV)                                                   1.63
 Max. SCF eigval diff. (eV)                                               247.03
 E-Range for minimax grid                                                 151.38
 Number of Padé parameters for analytic continuation:                         16
 
 RI-RS basis radii (Å):
     Kind  Elem     r_AO (Å)     r_RI (Å)
        1    H        11.3560        5.9118
        2    C         9.5975        5.7974
 
 Started RI-RS grid optimization
 RI-RS grid optimization completed, execution time:                      553.9 s
 Normalized 3C error:                                                    1.6E-06
 Maximum absolute 3C error:                                              1.7E-02
 Total grid points used for RI-RS:                                          8584
 
 RI-RS grid row-blocks of Φ_μ(r_l)                                           376
 RI-RS grid points per block (max)                                            32
 
 Percentage of non-zero matrix elements in Φ_μ(r_l)                      38.27 %
 
 RI-RS memory estimate per MPI process:
   Available memory per process (system)                               131.95 GB
   Required for Z_lP (dense upper bound; actual is sparser)              0.02 GB
   Required for χ, W, Σ panels (peak per panel step)                     0.15 GB
   Required for Z_lP solve peak (D_local+φ, worst-case atom)             0.40 GB
   Worst-case local-grid number of grid points:                             6088
   Worst-case memory D_local:                                            0.30 GB
 
 Started computing Z_lP
 Per-kind maximum RI-RS sphere cutoff (Å):
   Kind   cutoff (Å)
     H        12.9118
     C        12.7974
 
 Computed Z_lP (MPI rank 0) for atom          1 / 10,    Execution time    1.1 s
 Computed Z_lP (MPI rank 0) for atom          2 / 10,    Execution time    1.0 s
 Computed Z_lP (MPI rank 0) for atom          3 / 10,    Execution time    1.0 s
 Computed Z_lP (MPI rank 0) for atom          4 / 10,    Execution time    0.8 s
 Computed Z_lP (MPI rank 0) for atom          5 / 10,    Execution time    0.8 s
 Computed Z_lP (MPI rank 0) for atom          6 / 10,    Execution time    0.6 s
 Computed Z_lP (MPI rank 0) for atom          7 / 10,    Execution time    0.6 s
 Computed Z_lP (MPI rank 0) for atom          8 / 10,    Execution time    0.4 s
 Computed Z_lP (MPI rank 0) for atom          9 / 10,    Execution time    0.4 s
 Computed Z_lP (MPI rank 0) for atom         10 / 10,    Execution time    0.2 s
 Computed Z_lP (all MPI ranks) for all atoms,            Execution time    6.9 s

 Memory per MPI process after computing Z_lP:
 Available memory per MPI process                              131.9 GB
 Used memory per MPI process                                     2.7 GB
 Number of batches for χ, Σ matrices                                           1
 
 Percentage of non-zero matrix elements in Z_lP                          64.60 %
 Percentage of non-zero matrix elements in G_ll', χ_ll', W_ll'          100.00 %
 Percentage of non-zero matrix elements in χ_PQ for time point 1        100.00 %
 
 Computed χ(iτ,k=0) for time point            1 / 30,    Execution time    0.7 s
 Computed χ(iτ,k=0) for time point            2 / 30,    Execution time    0.6 s
 Computed χ(iτ,k=0) for time point            3 / 30,    Execution time    0.6 s
 Computed χ(iτ,k=0) for time point            4 / 30,    Execution time    0.6 s
 Computed χ(iτ,k=0) for time point            5 / 30,    Execution time    0.5 s
 Computed χ(iτ,k=0) for time point            6 / 30,    Execution time    0.6 s
 Computed χ(iτ,k=0) for time point            7 / 30,    Execution time    0.6 s
 Computed χ(iτ,k=0) for time point            8 / 30,    Execution time    0.6 s
 Computed χ(iτ,k=0) for time point            9 / 30,    Execution time    0.6 s
 Computed χ(iτ,k=0) for time point           10 / 30,    Execution time    0.5 s
 Computed χ(iτ,k=0) for time point           11 / 30,    Execution time    0.6 s
 Computed χ(iτ,k=0) for time point           12 / 30,    Execution time    0.5 s
 Computed χ(iτ,k=0) for time point           13 / 30,    Execution time    0.5 s
 Computed χ(iτ,k=0) for time point           14 / 30,    Execution time    0.5 s
 Computed χ(iτ,k=0) for time point           15 / 30,    Execution time    0.5 s
 Computed χ(iτ,k=0) for time point           16 / 30,    Execution time    0.5 s
 Computed χ(iτ,k=0) for time point           17 / 30,    Execution time    0.6 s
 Computed χ(iτ,k=0) for time point           18 / 30,    Execution time    0.6 s
 Computed χ(iτ,k=0) for time point           19 / 30,    Execution time    0.5 s
 Computed χ(iτ,k=0) for time point           20 / 30,    Execution time    0.5 s
 Computed χ(iτ,k=0) for time point           21 / 30,    Execution time    0.5 s
 Computed χ(iτ,k=0) for time point           22 / 30,    Execution time    0.5 s
 Computed χ(iτ,k=0) for time point           23 / 30,    Execution time    0.5 s
 Computed χ(iτ,k=0) for time point           24 / 30,    Execution time    0.5 s
 Computed χ(iτ,k=0) for time point           25 / 30,    Execution time    0.4 s
 Computed χ(iτ,k=0) for time point           26 / 30,    Execution time    0.4 s
 Computed χ(iτ,k=0) for time point           27 / 30,    Execution time    0.1 s
 Computed χ(iτ,k=0) for time point           28 / 30,    Execution time    0.1 s
 Computed χ(iτ,k=0) for time point           29 / 30,    Execution time    0.1 s
 Computed χ(iτ,k=0) for time point           30 / 30,    Execution time    0.1 s
 
 Computed W(iτ),                                         Execution time   18.5 s
 Computed W(0),                                          Execution time    0.1 s
 
 Computed Σ^x(k=0),                                      Execution time    0.9 s
 
 Computed Σ^c(iτ) for time point              1 / 30,    Execution time    0.8 s
 Computed Σ^c(iτ) for time point              2 / 30,    Execution time    0.8 s
 Computed Σ^c(iτ) for time point              3 / 30,    Execution time    0.7 s
 Computed Σ^c(iτ) for time point              4 / 30,    Execution time    0.6 s
 Computed Σ^c(iτ) for time point              5 / 30,    Execution time    0.7 s
 Computed Σ^c(iτ) for time point              6 / 30,    Execution time    0.6 s
 Computed Σ^c(iτ) for time point              7 / 30,    Execution time    0.6 s
 Computed Σ^c(iτ) for time point              8 / 30,    Execution time    0.6 s
 Computed Σ^c(iτ) for time point              9 / 30,    Execution time    0.6 s
 Computed Σ^c(iτ) for time point             10 / 30,    Execution time    0.6 s
 Computed Σ^c(iτ) for time point             11 / 30,    Execution time    0.6 s
 Computed Σ^c(iτ) for time point             12 / 30,    Execution time    0.6 s
 Computed Σ^c(iτ) for time point             13 / 30,    Execution time    0.6 s
 Computed Σ^c(iτ) for time point             14 / 30,    Execution time    0.6 s
 Computed Σ^c(iτ) for time point             15 / 30,    Execution time    0.6 s
 Computed Σ^c(iτ) for time point             16 / 30,    Execution time    0.6 s
 Computed Σ^c(iτ) for time point             17 / 30,    Execution time    0.6 s
 Computed Σ^c(iτ) for time point             18 / 30,    Execution time    0.6 s
 Computed Σ^c(iτ) for time point             19 / 30,    Execution time    0.6 s
 Computed Σ^c(iτ) for time point             20 / 30,    Execution time    0.5 s
 Computed Σ^c(iτ) for time point             21 / 30,    Execution time    0.6 s
 Computed Σ^c(iτ) for time point             22 / 30,    Execution time    0.5 s
 Computed Σ^c(iτ) for time point             23 / 30,    Execution time    0.5 s
 Computed Σ^c(iτ) for time point             24 / 30,    Execution time    0.6 s
 Computed Σ^c(iτ) for time point             25 / 30,    Execution time    0.4 s
 Computed Σ^c(iτ) for time point             26 / 30,    Execution time    0.4 s
 Computed Σ^c(iτ) for time point             27 / 30,    Execution time    0.1 s
 Computed Σ^c(iτ) for time point             28 / 30,    Execution time    0.1 s
 Computed Σ^c(iτ) for time point             29 / 30,    Execution time    0.1 s
 Computed Σ^c(iτ) for time point             30 / 30,    Execution time    0.1 s
 
 SCF valence band maximum (eV):                                           -4.593
 SCF conduction band minimum (eV):                                        -2.961
 SCF indirect band gap (eV):                                               1.632
 SCF direct band gap (eV):                                                 1.632
 
 G0W0 valence band maximum (eV):                                          -5.132
 G0W0 conduction band minimum (eV):                                       -1.529
 G0W0 indirect band gap (eV):                                              3.602
 G0W0 direct band gap (eV):                                                3.602
 
 Hartree-Fock with SCF orbitals valence band maximum (eV):                -5.235
 Hartree-Fock with SCF orbitals conduction band minimum (eV)               0.656
 Hartree-Fock with SCF orbitals indirect band gap (eV):                    5.891
 Hartree-Fock with SCF orbitals direct band gap (eV):                      5.891

 ENERGY| Total FORCE_EVAL ( QS ) energy [hartree]           -660.859959020840961

 *** HINT in emd/rt_bse_linearized.F:440 :: ENFORCE_MAX_DT enabled. ***
 *** Resetting TIMESTEP to          72.3851 as and STEPS to 2763.   ***

 
 /-----------------------------------------------------------------------------\
 |                                                                             |
 |              Linearized Real Time Bethe-Salpeter Propagation                |
 |                                                                             |
 \-----------------------------------------------------------------------------/
 
 Apply delta pulse                                                             T

 Use Tamm-Dancoff                                                              T
 TDA first-peak shift active                                                   F

 Estimated maximum timestep within stability region [as]:                72.3933
 Applied timestep [as]:                                                  72.3851
 Number of propagation steps:                                               2763
 Total propagation time [as]:                                        200000.0000
 Estimated FFT frequency resolution without interpolation [eV]:         0.020678
 Nyquist frequency [eV]:                                               28.567122
 Estimated maximum oscillation frequency (gap-based) [eV]:             25.716540
 GW flavor for computing GW eigenvalues used in RT-BSE:                     G0W0
 Active-window occupied energy cutoff [eV]:                               10.000
 Active-window virtual energy cutoff [eV]:                                10.000
 First active occupied MO index:                                              81
 Last active virtual MO index:                                               505
 Number of active MOs:                                                       425
 Spin 1 first active MO, E - E_HOMO (KS) [eV]:                            -9.872
 Spin 1 last active MO, E - E_LUMO (KS) [eV]:                              9.929
 Spin 1 first active MO, E - E_HOMO (QP) [eV]:                           -10.788
 Spin 1 last active MO, E - E_LUMO (QP) [eV]:                             10.107
 Precomputed RT-BSE RI-RS V_aux kernel,                  Execution time    0.3 s
 
 W0CUT| Cutoff radius, negative = off [angstrom]                         50.0000
 W0CUT| Retained block fraction                                         1.000000
 W0CUT| Retained Frobenius norm                                   1.30966892E+07
 Precomputed RT-BSE RI-RS W0_grid kernel,                Execution time    0.5 s
 
 RTBSE| Applying delta pulse
 RTBSE| Delta pulse elements (a.u.) :   -0.0000E+000  -0.1000E-002  -0.0000E+000
 RTBSE| Metric difference after delta kick                       0.52295222E-002
 RTBSE| Estimated runtime for propagation [s]                           4790.789
 RTBSE|
 RTBSE| Simulation step   Step time [s]                          Electron number
 RTBSE|               0           1.734                               0.328E+003
 RTBSE|               1           1.604                               0.328E+003
 RTBSE|               2           1.610                               0.328E+003
 RTBSE|               3           1.583                               0.328E+003
 RTBSE|               4           1.574                               0.328E+003
 RTBSE|               5           1.597                               0.328E+003
 RTBSE|               6           1.575                               0.328E+003
 RTBSE|               7           1.582                               0.328E+003
 RTBSE|               8           1.592                               0.328E+003
 RTBSE|               9           1.604                               0.328E+003
 RTBSE|              10           1.598                               0.328E+003
 RTBSE|              11           1.620                               0.328E+003
 RTBSE|              12           1.621                               0.328E+003
 RTBSE|              13           1.601                               0.328E+003
 RTBSE|              14           1.672                               0.328E+003
 RTBSE|              15           1.658                               0.328E+003
 RTBSE|              16           1.587                               0.328E+003
 RTBSE|              17           1.602                               0.328E+003
 RTBSE|              18           1.597                               0.328E+003
 RTBSE|              19           1.588                               0.328E+003
 RTBSE|              20           1.587                               0.328E+003
 RTBSE|              21           1.608                               0.328E+003
 RTBSE|              22           1.600                               0.328E+003
 RTBSE|              23           1.586                               0.328E+003
 RTBSE|              24           1.590                               0.328E+003
 RTBSE|              25           1.574                               0.328E+003
 RTBSE|              26           1.605                               0.328E+003
 RTBSE|              27           1.572                               0.328E+003
 RTBSE|              28           1.582                               0.328E+003
 RTBSE|              29           1.573                               0.328E+003
 RTBSE|              30           1.581                               0.328E+003
 RTBSE|              31           1.644                               0.328E+003
 RTBSE|              32           1.577                               0.328E+003
 RTBSE|              33           1.649                               0.328E+003
 RTBSE|              34           1.578                               0.328E+003
 RTBSE|              35           1.592                               0.328E+003
 RTBSE|              36           1.594                               0.328E+003
 RTBSE|              37           1.558                               0.328E+003
 RTBSE|              38           1.571                               0.328E+003
 RTBSE|              39           1.566                               0.328E+003
 RTBSE|              40           1.609                               0.328E+003
 RTBSE|              41           1.572                               0.328E+003
 RTBSE|              42           1.564                               0.328E+003
 RTBSE|              43           1.574                               0.328E+003
 RTBSE|              44           1.576                               0.328E+003
 RTBSE|              45           1.577                               0.328E+003
 RTBSE|              46           1.571                               0.328E+003
 RTBSE|              47           1.609                               0.328E+003
 RTBSE|              48           1.603                               0.328E+003
 RTBSE|              49           1.584                               0.328E+003
 RTBSE|              50           1.628                               0.328E+003
 RTBSE|              51           1.637                               0.328E+003
 RTBSE|              52           1.685                               0.328E+003
 RTBSE|              53           1.580                               0.328E+003
 RTBSE|              54           1.604                               0.328E+003
 RTBSE|              55           1.567                               0.328E+003
 RTBSE|              56           1.558                               0.328E+003
 RTBSE|              57           1.562                               0.328E+003
 RTBSE|              58           1.564                               0.328E+003
 RTBSE|              59           1.566                               0.328E+003
 RTBSE|              60           1.558                               0.328E+003
 RTBSE|              61           1.569                               0.328E+003
 RTBSE|              62           1.566                               0.328E+003
 RTBSE|              63           1.559                               0.328E+003
 RTBSE|              64           1.569                               0.328E+003
 RTBSE|              65           1.735                               0.328E+003
 RTBSE|              66           1.553                               0.328E+003
 RTBSE|              67           1.570                               0.328E+003
 RTBSE|              68           1.582                               0.328E+003
 RTBSE|              69           1.628                               0.328E+003
 RTBSE|              70           1.581                               0.328E+003
 RTBSE|              71           1.669                               0.328E+003
 RTBSE|              72           1.595                               0.328E+003
 RTBSE|              73           1.584                               0.328E+003
 RTBSE|              74           1.572                               0.328E+003
 RTBSE|              75           1.556                               0.328E+003
 RTBSE|              76           1.559                               0.328E+003
 RTBSE|              77           1.575                               0.328E+003
 RTBSE|              78           1.570                               0.328E+003
 RTBSE|              79           1.557                               0.328E+003
 RTBSE|              80           1.557                               0.328E+003
 RTBSE|              81           1.567                               0.328E+003
 RTBSE|              82           1.560                               0.328E+003
 RTBSE|              83           1.574                               0.328E+003
 RTBSE|              84           1.565                               0.328E+003
 RTBSE|              85           1.560                               0.328E+003
 RTBSE|              86           1.609                               0.328E+003
 RTBSE|              87           1.621                               0.328E+003
 RTBSE|              88           1.616                               0.328E+003
 RTBSE|              89           1.645                               0.328E+003
 RTBSE|              90           1.653                               0.328E+003
 RTBSE|              91           1.585                               0.328E+003
 RTBSE|              92           1.589                               0.328E+003
 RTBSE|              93           1.581                               0.328E+003
 RTBSE|              94           1.569                               0.328E+003
 RTBSE|              95           1.568                               0.328E+003
 RTBSE|              96           1.580                               0.328E+003
 RTBSE|              97           1.564                               0.328E+003
 RTBSE|              98           1.573                               0.328E+003
 RTBSE|              99           1.574                               0.328E+003
 RTBSE|             100           1.566                               0.328E+003
 RTBSE|             101           1.558                               0.328E+003
 RTBSE|             102           1.558                               0.328E+003
 RTBSE|             103           1.562                               0.328E+003
 RTBSE|             104           1.560                               0.328E+003
 RTBSE|             105           1.579                               0.328E+003
 RTBSE|             106           1.640                               0.328E+003
 RTBSE|             107           1.588                               0.328E+003
 RTBSE|             108           1.614                               0.328E+003
 RTBSE|             109           1.653                               0.328E+003
 RTBSE|             110           1.566                               0.328E+003
 RTBSE|             111           1.580                               0.328E+003
 RTBSE|             112           1.565                               0.328E+003
 RTBSE|             113           1.559                               0.328E+003
 RTBSE|             114           1.553                               0.328E+003
 RTBSE|             115           1.558                               0.328E+003
 RTBSE|             116           1.560                               0.328E+003
 RTBSE|             117           1.551                               0.328E+003
 RTBSE|             118           1.567                               0.328E+003
 RTBSE|             119           1.551                               0.328E+003
 RTBSE|             120           1.553                               0.328E+003
 RTBSE|             121           1.550                               0.328E+003
 RTBSE|             122           1.550                               0.328E+003
 RTBSE|             123           1.556                               0.328E+003
 RTBSE|             124           1.606                               0.328E+003
 RTBSE|             125           1.617                               0.328E+003
 RTBSE|             126           1.579                               0.328E+003
 RTBSE|             127           1.650                               0.328E+003
 RTBSE|             128           1.611                               0.328E+003
 RTBSE|             129           1.576                               0.328E+003
 RTBSE|             130           1.590                               0.328E+003
 RTBSE|             131           1.553                               0.328E+003
 RTBSE|             132           1.554                               0.328E+003
 RTBSE|             133           1.555                               0.328E+003
 RTBSE|             134           1.552                               0.328E+003
 RTBSE|             135           1.550                               0.328E+003
 RTBSE|             136           1.578                               0.328E+003
 RTBSE|             137           1.550                               0.328E+003
 RTBSE|             138           1.578                               0.328E+003
 RTBSE|             139           1.554                               0.328E+003
 RTBSE|             140           1.554                               0.328E+003
 RTBSE|             141           1.550                               0.328E+003
 RTBSE|             142           1.549                               0.328E+003
 RTBSE|             143           1.553                               0.328E+003
 RTBSE|             144           1.617                               0.328E+003
 RTBSE|             145           1.566                               0.328E+003
 RTBSE|             146           1.605                               0.328E+003
 RTBSE|             147           1.606                               0.328E+003
 RTBSE|             148           1.581                               0.328E+003
 RTBSE|             149           1.582                               0.328E+003
 RTBSE|             150           1.561                               0.328E+003
 RTBSE|             151           1.574                               0.328E+003
 RTBSE|             152           1.556                               0.328E+003
 RTBSE|             153           1.557                               0.328E+003
 RTBSE|             154           1.552                               0.328E+003
 RTBSE|             155           1.560                               0.328E+003
 RTBSE|             156           1.573                               0.328E+003
 RTBSE|             157           1.562                               0.328E+003
 RTBSE|             158           1.550                               0.328E+003
 RTBSE|             159           1.557                               0.328E+003
 RTBSE|             160           1.556                               0.328E+003
 RTBSE|             161           1.558                               0.328E+003
 RTBSE|             162           1.614                               0.328E+003
 RTBSE|             163           1.646                               0.328E+003
 RTBSE|             164           1.565                               0.328E+003
 RTBSE|             165           1.631                               0.328E+003
 RTBSE|             166           1.630                               0.328E+003
 RTBSE|             167           1.557                               0.328E+003
 RTBSE|             168           1.582                               0.328E+003
 RTBSE|             169           1.557                               0.328E+003
 RTBSE|             170           1.556                               0.328E+003
 RTBSE|             171           1.605                               0.328E+003
 RTBSE|             172           1.564                               0.328E+003
 RTBSE|             173           1.557                               0.328E+003
 RTBSE|             174           1.560                               0.328E+003
 RTBSE|             175           1.557                               0.328E+003
 RTBSE|             176           1.563                               0.328E+003
 RTBSE|             177           1.572                               0.328E+003
 RTBSE|             178           1.560                               0.328E+003
 RTBSE|             179           1.567                               0.328E+003
 RTBSE|             180           1.555                               0.328E+003
 RTBSE|             181           1.566                               0.328E+003
 RTBSE|             182           1.642                               0.328E+003
 RTBSE|             183           1.581                               0.328E+003
 RTBSE|             184           1.627                               0.328E+003
 RTBSE|             185           1.628                               0.328E+003
 RTBSE|             186           1.555                               0.328E+003
 RTBSE|             187           1.584                               0.328E+003
 RTBSE|             188           1.558                               0.328E+003
 RTBSE|             189           1.581                               0.328E+003
 RTBSE|             190           1.577                               0.328E+003
 RTBSE|             191           1.557                               0.328E+003
 RTBSE|             192           1.554                               0.328E+003
 RTBSE|             193           1.555                               0.328E+003
 RTBSE|             194           1.554                               0.328E+003
 RTBSE|             195           1.557                               0.328E+003
 RTBSE|             196           1.550                               0.328E+003
 RTBSE|             197           1.553                               0.328E+003
 RTBSE|             198           1.552                               0.328E+003
 RTBSE|             199           1.562                               0.328E+003
 RTBSE|             200           1.628                               0.328E+003
 RTBSE|             201           1.674                               0.328E+003
 RTBSE|             202           1.573                               0.328E+003
 RTBSE|             203           1.665                               0.328E+003
 RTBSE|             204           1.621                               0.328E+003
 RTBSE|             205           1.559                               0.328E+003
 RTBSE|             206           1.575                               0.328E+003
 RTBSE|             207           1.568                               0.328E+003
 RTBSE|             208           1.562                               0.328E+003
 RTBSE|             209           1.559                               0.328E+003
 RTBSE|             210           1.553                               0.328E+003
 RTBSE|             211           1.572                               0.328E+003
 RTBSE|             212           1.557                               0.328E+003
 RTBSE|             213           1.568                               0.328E+003
 RTBSE|             214           1.557                               0.328E+003
 RTBSE|             215           1.554                               0.328E+003
 RTBSE|             216           1.553                               0.328E+003
 RTBSE|             217           1.555                               0.328E+003
 RTBSE|             218           1.561                               0.328E+003
 RTBSE|             219           1.562                               0.328E+003
 RTBSE|             220           1.649                               0.328E+003
 RTBSE|             221           1.562                               0.328E+003
 RTBSE|             222           1.604                               0.328E+003
 RTBSE|             223           1.625                               0.328E+003
 RTBSE|             224           1.573                               0.328E+003
 RTBSE|             225           1.582                               0.328E+003
 RTBSE|             226           1.556                               0.328E+003
 RTBSE|             227           1.558                               0.328E+003
 RTBSE|             228           1.549                               0.328E+003
 RTBSE|             229           1.551                               0.328E+003
 RTBSE|             230           1.558                               0.328E+003
 RTBSE|             231           1.561                               0.328E+003
 RTBSE|             232           1.577                               0.328E+003
 RTBSE|             233           1.559                               0.328E+003
 RTBSE|             234           1.567                               0.328E+003
 RTBSE|             235           1.559                               0.328E+003
 RTBSE|             236           1.569                               0.328E+003
 RTBSE|             237           1.578                               0.328E+003
 RTBSE|             238           1.615                               0.328E+003
 RTBSE|             239           1.639                               0.328E+003
 RTBSE|             240           1.589                               0.328E+003
 RTBSE|             241           1.665                               0.328E+003
 RTBSE|             242           1.638                               0.328E+003
 RTBSE|             243           1.564                               0.328E+003
 RTBSE|             244           1.582                               0.328E+003
 RTBSE|             245           1.558                               0.328E+003
 RTBSE|             246           1.569                               0.328E+003
 RTBSE|             247           1.557                               0.328E+003
 RTBSE|             248           1.561                               0.328E+003
 RTBSE|             249           1.556                               0.328E+003
 RTBSE|             250           1.557                               0.328E+003
 RTBSE|             251           1.554                               0.328E+003
 RTBSE|             252           1.549                               0.328E+003
 RTBSE|             253           1.552                               0.328E+003
 RTBSE|             254           1.552                               0.328E+003
 RTBSE|             255           1.563                               0.328E+003
 RTBSE|             256           1.560                               0.328E+003
 RTBSE|             257           1.583                               0.328E+003
 RTBSE|             258           1.611                               0.328E+003
 RTBSE|             259           1.573                               0.328E+003
 RTBSE|             260           1.614                               0.328E+003
 RTBSE|             261           1.620                               0.328E+003
 RTBSE|             262           1.562                               0.328E+003
 RTBSE|             263           1.585                               0.328E+003
 RTBSE|             264           1.561                               0.328E+003
 RTBSE|             265           1.563                               0.328E+003
 RTBSE|             266           1.557                               0.328E+003
 RTBSE|             267           1.560                               0.328E+003
 RTBSE|             268           1.567                               0.328E+003
 RTBSE|             269           1.559                               0.328E+003
 RTBSE|             270           1.566                               0.328E+003
 RTBSE|             271           1.554                               0.328E+003
 RTBSE|             272           1.554                               0.328E+003
 RTBSE|             273           1.554                               0.328E+003
 RTBSE|             274           1.555                               0.328E+003
 RTBSE|             275           1.556                               0.328E+003
 RTBSE|             276           1.618                               0.328E+003
 RTBSE|             277           1.609                               0.328E+003
 RTBSE|             278           1.575                               0.328E+003
 RTBSE|             279           1.623                               0.328E+003
 RTBSE|             280           1.630                               0.328E+003
 RTBSE|             281           1.560                               0.328E+003
 RTBSE|             282           1.582                               0.328E+003
 RTBSE|             283           1.570                               0.328E+003
 RTBSE|             284           1.561                               0.328E+003
 RTBSE|             285           1.560                               0.328E+003
 RTBSE|             286           1.559                               0.328E+003
 RTBSE|             287           1.562                               0.328E+003
 RTBSE|             288           1.563                               0.328E+003
 RTBSE|             289           1.559                               0.328E+003
 RTBSE|             290           1.564                               0.328E+003
 RTBSE|             291           1.558                               0.328E+003
 RTBSE|             292           1.552                               0.328E+003
 RTBSE|             293           1.557                               0.328E+003
 RTBSE|             294           1.554                               0.328E+003
 RTBSE|             295           1.593                               0.328E+003
 RTBSE|             296           1.619                               0.328E+003
 RTBSE|             297           1.579                               0.328E+003
 RTBSE|             298           1.612                               0.328E+003
 RTBSE|             299           1.661                               0.328E+003
 RTBSE|             300           1.560                               0.328E+003
 RTBSE|             301           1.590                               0.328E+003
 RTBSE|             302           1.556                               0.328E+003
 RTBSE|             303           1.561                               0.328E+003
 RTBSE|             304           1.583                               0.328E+003
 RTBSE|             305           1.555                               0.328E+003
 RTBSE|             306           1.559                               0.328E+003
 RTBSE|             307           1.560                               0.328E+003
 RTBSE|             308           1.564                               0.328E+003
 RTBSE|             309           1.563                               0.328E+003
 RTBSE|             310           1.570                               0.328E+003
 RTBSE|             311           1.565                               0.328E+003
 RTBSE|             312           1.570                               0.328E+003
 RTBSE|             313           1.566                               0.328E+003
 RTBSE|             314           1.628                               0.328E+003
 RTBSE|             315           1.620                               0.328E+003
 RTBSE|             316           1.578                               0.328E+003
 RTBSE|             317           1.735                               0.328E+003
 RTBSE|             318           1.581                               0.328E+003
 RTBSE|             319           1.580                               0.328E+003
 RTBSE|             320           1.565                               0.328E+003
 RTBSE|             321           1.566                               0.328E+003
 RTBSE|             322           1.560                               0.328E+003
 RTBSE|             323           1.563                               0.328E+003
 RTBSE|             324           1.574                               0.328E+003
 RTBSE|             325           1.565                               0.328E+003
 RTBSE|             326           1.590                               0.328E+003
 RTBSE|             327           1.570                               0.328E+003
 RTBSE|             328           1.563                               0.328E+003
 RTBSE|             329           1.574                               0.328E+003
 RTBSE|             330           1.566                               0.328E+003
 RTBSE|             331           1.570                               0.328E+003
 RTBSE|             332           1.572                               0.328E+003
 RTBSE|             333           1.595                               0.328E+003
 RTBSE|             334           1.617                               0.328E+003
 RTBSE|             335           1.578                               0.328E+003
 RTBSE|             336           1.675                               0.328E+003
 RTBSE|             337           1.592                               0.328E+003
 RTBSE|             338           1.589                               0.328E+003
 RTBSE|             339           1.565                               0.328E+003
 RTBSE|             340           1.564                               0.328E+003
 RTBSE|             341           1.557                               0.328E+003
 RTBSE|             342           1.565                               0.328E+003
 RTBSE|             343           1.569                               0.328E+003
 RTBSE|             344           1.564                               0.328E+003
 RTBSE|             345           1.563                               0.328E+003
 RTBSE|             346           1.575                               0.328E+003
 RTBSE|             347           1.568                               0.328E+003
 RTBSE|             348           1.569                               0.328E+003
 RTBSE|             349           1.561                               0.328E+003
 RTBSE|             350           1.556                               0.328E+003
 RTBSE|             351           1.566                               0.328E+003
 RTBSE|             352           1.631                               0.328E+003
 RTBSE|             353           1.614                               0.328E+003
 RTBSE|             354           1.561                               0.328E+003
 RTBSE|             355           1.732                               0.328E+003
 RTBSE|             356           1.580                               0.328E+003
 RTBSE|             357           1.590                               0.328E+003
 RTBSE|             358           1.574                               0.328E+003
 RTBSE|             359           1.570                               0.328E+003
 RTBSE|             360           1.567                               0.328E+003
 RTBSE|             361           1.560                               0.328E+003
 RTBSE|             362           1.563                               0.328E+003
 RTBSE|             363           1.565                               0.328E+003
 RTBSE|             364           1.553                               0.328E+003
 RTBSE|             365           1.558                               0.328E+003
 RTBSE|             366           1.593                               0.328E+003
 RTBSE|             367           1.563                               0.328E+003
 RTBSE|             368           1.568                               0.328E+003
 RTBSE|             369           1.569                               0.328E+003
 RTBSE|             370           1.558                               0.328E+003
 RTBSE|             371           1.576                               0.328E+003
 RTBSE|             372           1.667                               0.328E+003
 RTBSE|             373           1.565                               0.328E+003
 RTBSE|             374           1.655                               0.328E+003
 RTBSE|             375           1.582                               0.328E+003
 RTBSE|             376           1.600                               0.328E+003
 RTBSE|             377           1.559                               0.328E+003
 RTBSE|             378           1.555                               0.328E+003
 RTBSE|             379           1.561                               0.328E+003
 RTBSE|             380           1.559                               0.328E+003
 RTBSE|             381           1.568                               0.328E+003
 RTBSE|             382           1.582                               0.328E+003
 RTBSE|             383           1.578                               0.328E+003
 RTBSE|             384           1.579                               0.328E+003
 RTBSE|             385           1.575                               0.328E+003
 RTBSE|             386           1.578                               0.328E+003
 RTBSE|             387           1.571                               0.328E+003
 RTBSE|             388           1.570                               0.328E+003
 RTBSE|             389           1.567                               0.328E+003
 RTBSE|             390           1.633                               0.328E+003
 RTBSE|             391           1.635                               0.328E+003
 RTBSE|             392           1.592                               0.328E+003
 RTBSE|             393           1.711                               0.328E+003
 RTBSE|             394           1.580                               0.328E+003
 RTBSE|             395           1.601                               0.328E+003
 RTBSE|             396           1.569                               0.328E+003
 RTBSE|             397           1.575                               0.328E+003
 RTBSE|             398           1.570                               0.328E+003
 RTBSE|             399           1.566                               0.328E+003
 RTBSE|             400           1.569                               0.328E+003
 RTBSE|             401           1.567                               0.328E+003
 RTBSE|             402           1.561                               0.328E+003
 RTBSE|             403           1.561                               0.328E+003
 RTBSE|             404           1.562                               0.328E+003
 RTBSE|             405           1.565                               0.328E+003
 RTBSE|             406           1.559                               0.328E+003
 RTBSE|             407           1.565                               0.328E+003
 RTBSE|             408           1.563                               0.328E+003
 RTBSE|             409           1.657                               0.328E+003
 RTBSE|             410           1.575                               0.328E+003
 RTBSE|             411           1.593                               0.328E+003
 RTBSE|             412           1.634                               0.328E+003
 RTBSE|             413           1.582                               0.328E+003
 RTBSE|             414           1.583                               0.328E+003
 RTBSE|             415           1.566                               0.328E+003
 RTBSE|             416           1.562                               0.328E+003
 RTBSE|             417           1.566                               0.328E+003
 RTBSE|             418           1.556                               0.328E+003
 RTBSE|             419           1.561                               0.328E+003
 RTBSE|             420           1.558                               0.328E+003
 RTBSE|             421           1.557                               0.328E+003
 RTBSE|             422           1.564                               0.328E+003
 RTBSE|             423           1.556                               0.328E+003
 RTBSE|             424           1.561                               0.328E+003
 RTBSE|             425           1.561                               0.328E+003
 RTBSE|             426           1.556                               0.328E+003
 RTBSE|             427           1.561                               0.328E+003
 RTBSE|             428           1.674                               0.328E+003
 RTBSE|             429           1.573                               0.328E+003
 RTBSE|             430           1.602                               0.328E+003
 RTBSE|             431           1.671                               0.328E+003
 RTBSE|             432           1.587                               0.328E+003
 RTBSE|             433           1.582                               0.328E+003
 RTBSE|             434           1.566                               0.328E+003
 RTBSE|             435           1.573                               0.328E+003
 RTBSE|             436           1.559                               0.328E+003
 RTBSE|             437           1.577                               0.328E+003
 RTBSE|             438           1.584                               0.328E+003
 RTBSE|             439           1.586                               0.328E+003
 RTBSE|             440           1.579                               0.328E+003
 RTBSE|             441           1.559                               0.328E+003
 RTBSE|             442           1.557                               0.328E+003
 RTBSE|             443           1.557                               0.328E+003
 RTBSE|             444           1.557                               0.328E+003
 RTBSE|             445           1.558                               0.328E+003
 RTBSE|             446           1.560                               0.328E+003
 RTBSE|             447           1.627                               0.328E+003
 RTBSE|             448           1.584                               0.328E+003
 RTBSE|             449           1.605                               0.328E+003
 RTBSE|             450           1.618                               0.328E+003
 RTBSE|             451           1.570                               0.328E+003
 RTBSE|             452           1.574                               0.328E+003
 RTBSE|             453           1.561                               0.328E+003
 RTBSE|             454           1.555                               0.328E+003
 RTBSE|             455           1.567                               0.328E+003
 RTBSE|             456           1.566                               0.328E+003
 RTBSE|             457           1.572                               0.328E+003
 RTBSE|             458           1.565                               0.328E+003
 RTBSE|             459           1.564                               0.328E+003
 RTBSE|             460           1.569                               0.328E+003
 RTBSE|             461           1.556                               0.328E+003
 RTBSE|             462           1.566                               0.328E+003
 RTBSE|             463           1.565                               0.328E+003
 RTBSE|             464           1.560                               0.328E+003
 RTBSE|             465           1.568                               0.328E+003
 RTBSE|             466           1.671                               0.328E+003
 RTBSE|             467           1.581                               0.328E+003
 RTBSE|             468           1.608                               0.328E+003
 RTBSE|             469           1.733                               0.328E+003
 RTBSE|             470           1.564                               0.328E+003
 RTBSE|             471           1.596                               0.328E+003
 RTBSE|             472           1.574                               0.328E+003
 RTBSE|             473           1.567                               0.328E+003
 RTBSE|             474           1.561                               0.328E+003
 RTBSE|             475           1.568                               0.328E+003
 RTBSE|             476           1.559                               0.328E+003
 RTBSE|             477           1.561                               0.328E+003
 RTBSE|             478           1.562                               0.328E+003
 RTBSE|             479           1.566                               0.328E+003
 RTBSE|             480           1.574                               0.328E+003
 RTBSE|             481           1.556                               0.328E+003
 RTBSE|             482           1.559                               0.328E+003
 RTBSE|             483           1.575                               0.328E+003
 RTBSE|             484           1.569                               0.328E+003
 RTBSE|             485           1.634                               0.328E+003
 RTBSE|             486           1.598                               0.328E+003
 RTBSE|             487           1.608                               0.328E+003
 RTBSE|             488           1.624                               0.328E+003
 RTBSE|             489           1.607                               0.328E+003
 RTBSE|             490           1.597                               0.328E+003
 RTBSE|             491           1.566                               0.328E+003
 RTBSE|             492           1.567                               0.328E+003
 RTBSE|             493           1.569                               0.328E+003
 RTBSE|             494           1.568                               0.328E+003
 RTBSE|             495           1.580                               0.328E+003
 RTBSE|             496           1.571                               0.328E+003
 RTBSE|             497           1.574                               0.328E+003
 RTBSE|             498           1.573                               0.328E+003
 RTBSE|             499           1.570                               0.328E+003
 RTBSE|             500           1.570                               0.328E+003
 RTBSE|             501           1.570                               0.328E+003
 RTBSE|             502           1.580                               0.328E+003
 RTBSE|             503           1.601                               0.328E+003
 RTBSE|             504           1.695                               0.328E+003
 RTBSE|             505           1.603                               0.328E+003
 RTBSE|             506           1.714                               0.328E+003
 RTBSE|             507           1.586                               0.328E+003
 RTBSE|             508           1.594                               0.328E+003
 RTBSE|             509           1.570                               0.328E+003
 RTBSE|             510           1.569                               0.328E+003
 RTBSE|             511           1.564                               0.328E+003
 RTBSE|             512           1.575                               0.328E+003
 RTBSE|             513           1.564                               0.328E+003
 RTBSE|             514           1.563                               0.328E+003
 RTBSE|             515           1.561                               0.328E+003
 RTBSE|             516           1.567                               0.328E+003
 RTBSE|             517           1.562                               0.328E+003
 RTBSE|             518           1.563                               0.328E+003
 RTBSE|             519           1.564                               0.328E+003
 RTBSE|             520           1.569                               0.328E+003
 RTBSE|             521           1.572                               0.328E+003
 RTBSE|             522           1.589                               0.328E+003
 RTBSE|             523           1.625                               0.328E+003
 RTBSE|             524           1.571                               0.328E+003
 RTBSE|             525           1.657                               0.328E+003
 RTBSE|             526           1.574                               0.328E+003
 RTBSE|             527           1.588                               0.328E+003
 RTBSE|             528           1.562                               0.328E+003
 RTBSE|             529           1.563                               0.328E+003
 RTBSE|             530           1.562                               0.328E+003
 RTBSE|             531           1.565                               0.328E+003
 RTBSE|             532           1.566                               0.328E+003
 RTBSE|             533           1.558                               0.328E+003
 RTBSE|             534           1.567                               0.328E+003
 RTBSE|             535           1.558                               0.328E+003
 RTBSE|             536           1.565                               0.328E+003
 RTBSE|             537           1.562                               0.328E+003
 RTBSE|             538           1.566                               0.328E+003
 RTBSE|             539           1.571                               0.328E+003
 RTBSE|             540           1.560                               0.328E+003
 RTBSE|             541           1.591                               0.328E+003
 RTBSE|             542           1.568                               0.328E+003
 RTBSE|             543           1.583                               0.328E+003
 RTBSE|             544           1.668                               0.328E+003
 RTBSE|             545           1.582                               0.328E+003
 RTBSE|             546           1.582                               0.328E+003
 RTBSE|             547           1.564                               0.328E+003
 RTBSE|             548           1.569                               0.328E+003
 RTBSE|             549           1.568                               0.328E+003
 RTBSE|             550           1.567                               0.328E+003
 RTBSE|             551           1.565                               0.328E+003
 RTBSE|             552           1.577                               0.328E+003
 RTBSE|             553           1.570                               0.328E+003
 RTBSE|             554           1.563                               0.328E+003
 RTBSE|             555           1.562                               0.328E+003
 RTBSE|             556           1.560                               0.328E+003
 RTBSE|             557           1.561                               0.328E+003
 RTBSE|             558           1.567                               0.328E+003
 RTBSE|             559           1.574                               0.328E+003
 RTBSE|             560           1.654                               0.328E+003
 RTBSE|             561           1.652                               0.328E+003
 RTBSE|             562           1.576                               0.328E+003
 RTBSE|             563           1.705                               0.328E+003
 RTBSE|             564           1.595                               0.328E+003
 RTBSE|             565           1.591                               0.328E+003
 RTBSE|             566           1.576                               0.328E+003
 RTBSE|             567           1.581                               0.328E+003
 RTBSE|             568           1.579                               0.328E+003
 RTBSE|             569           1.581                               0.328E+003
 RTBSE|             570           1.596                               0.328E+003
 RTBSE|             571           1.611                               0.328E+003
 RTBSE|             572           1.599                               0.328E+003
 RTBSE|             573           1.578                               0.328E+003
 RTBSE|             574           1.576                               0.328E+003
 RTBSE|             575           1.577                               0.328E+003
 RTBSE|             576           1.582                               0.328E+003
 RTBSE|             577           1.590                               0.328E+003
 RTBSE|             578           1.574                               0.328E+003
 RTBSE|             579           1.729                               0.328E+003
 RTBSE|             580           1.595                               0.328E+003
 RTBSE|             581           1.633                               0.328E+003
 RTBSE|             582           1.643                               0.328E+003
 RTBSE|             583           1.590                               0.328E+003
 RTBSE|             584           1.603                               0.328E+003
 RTBSE|             585           1.573                               0.328E+003
 RTBSE|             586           1.572                               0.328E+003
 RTBSE|             587           1.579                               0.328E+003
 RTBSE|             588           1.578                               0.328E+003
 RTBSE|             589           1.575                               0.328E+003
 RTBSE|             590           1.583                               0.328E+003
 RTBSE|             591           1.579                               0.328E+003
 RTBSE|             592           1.578                               0.328E+003
 RTBSE|             593           1.577                               0.328E+003
 RTBSE|             594           1.581                               0.328E+003
 RTBSE|             595           1.575                               0.328E+003
 RTBSE|             596           1.575                               0.328E+003
 RTBSE|             597           1.570                               0.328E+003
 RTBSE|             598           1.674                               0.328E+003
 RTBSE|             599           1.597                               0.328E+003
 RTBSE|             600           1.615                               0.328E+003
 RTBSE|             601           1.662                               0.328E+003
 RTBSE|             602           1.592                               0.328E+003
 RTBSE|             603           1.617                               0.328E+003
 RTBSE|             604           1.582                               0.328E+003
 RTBSE|             605           1.599                               0.328E+003
 RTBSE|             606           1.580                               0.328E+003
 RTBSE|             607           1.575                               0.328E+003
 RTBSE|             608           1.583                               0.328E+003
 RTBSE|             609           1.587                               0.328E+003
 RTBSE|             610           1.597                               0.328E+003
 RTBSE|             611           1.588                               0.328E+003
 RTBSE|             612           1.577                               0.328E+003
 RTBSE|             613           1.577                               0.328E+003
 RTBSE|             614           1.578                               0.328E+003
 RTBSE|             615           1.581                               0.328E+003
 RTBSE|             616           1.596                               0.328E+003
 RTBSE|             617           1.670                               0.328E+003
 RTBSE|             618           1.603                               0.328E+003
 RTBSE|             619           1.733                               0.328E+003
 RTBSE|             620           1.603                               0.328E+003
 RTBSE|             621           1.602                               0.328E+003
 RTBSE|             622           1.587                               0.328E+003
 RTBSE|             623           1.587                               0.328E+003
 RTBSE|             624           1.593                               0.328E+003
 RTBSE|             625           1.592                               0.328E+003
 RTBSE|             626           1.599                               0.328E+003
 RTBSE|             627           1.591                               0.328E+003
 RTBSE|             628           1.579                               0.328E+003
 RTBSE|             629           1.582                               0.328E+003
 RTBSE|             630           1.588                               0.328E+003
 RTBSE|             631           1.577                               0.328E+003
 RTBSE|             632           1.573                               0.328E+003
 RTBSE|             633           1.576                               0.328E+003
 RTBSE|             634           1.580                               0.328E+003
 RTBSE|             635           1.618                               0.328E+003
 RTBSE|             636           1.662                               0.328E+003
 RTBSE|             637           1.613                               0.328E+003
 RTBSE|             638           1.670                               0.328E+003
 RTBSE|             639           1.597                               0.328E+003
 RTBSE|             640           1.619                               0.328E+003
 RTBSE|             641           1.582                               0.328E+003
 RTBSE|             642           1.576                               0.328E+003
 RTBSE|             643           1.573                               0.328E+003
 RTBSE|             644           1.562                               0.328E+003
 RTBSE|             645           1.567                               0.328E+003
 RTBSE|             646           1.569                               0.328E+003
 RTBSE|             647           1.561                               0.328E+003
 RTBSE|             648           1.573                               0.328E+003
 RTBSE|             649           1.560                               0.328E+003
 RTBSE|             650           1.563                               0.328E+003
 RTBSE|             651           1.562                               0.328E+003
 RTBSE|             652           1.565                               0.328E+003
 RTBSE|             653           1.565                               0.328E+003
 RTBSE|             654           1.689                               0.328E+003
 RTBSE|             655           1.564                               0.328E+003
 RTBSE|             656           1.622                               0.328E+003
 RTBSE|             657           1.657                               0.328E+003
 RTBSE|             658           1.593                               0.328E+003
 RTBSE|             659           1.588                               0.328E+003
 RTBSE|             660           1.566                               0.328E+003
 RTBSE|             661           1.562                               0.328E+003
 RTBSE|             662           1.584                               0.328E+003
 RTBSE|             663           1.565                               0.328E+003
 RTBSE|             664           1.561                               0.328E+003
 RTBSE|             665           1.563                               0.328E+003
 RTBSE|             666           1.562                               0.328E+003
 RTBSE|             667           1.564                               0.328E+003
 RTBSE|             668           1.567                               0.328E+003
 RTBSE|             669           1.566                               0.328E+003
 RTBSE|             670           1.571                               0.328E+003
 RTBSE|             671           1.571                               0.328E+003
 RTBSE|             672           1.580                               0.328E+003
 RTBSE|             673           1.640                               0.328E+003
 RTBSE|             674           1.593                               0.328E+003
 RTBSE|             675           1.638                               0.328E+003
 RTBSE|             676           1.632                               0.328E+003
 RTBSE|             677           1.576                               0.328E+003
 RTBSE|             678           1.598                               0.328E+003
 RTBSE|             679           1.572                               0.328E+003
 RTBSE|             680           1.581                               0.328E+003
 RTBSE|             681           1.577                               0.328E+003
 RTBSE|             682           1.583                               0.328E+003
 RTBSE|             683           1.581                               0.328E+003
 RTBSE|             684           1.580                               0.328E+003
 RTBSE|             685           1.578                               0.328E+003
 RTBSE|             686           1.576                               0.328E+003
 RTBSE|             687           1.572                               0.328E+003
 RTBSE|             688           1.566                               0.328E+003
 RTBSE|             689           1.562                               0.328E+003
 RTBSE|             690           1.565                               0.328E+003
 RTBSE|             691           1.595                               0.328E+003
 RTBSE|             692           1.678                               0.328E+003
 RTBSE|             693           1.592                               0.328E+003
 RTBSE|             694           1.614                               0.328E+003
 RTBSE|             695           1.689                               0.328E+003
 RTBSE|             696           1.595                               0.328E+003
 RTBSE|             697           1.565                               0.328E+003
 RTBSE|             698           1.565                               0.328E+003
 RTBSE|             699           1.569                               0.328E+003
 RTBSE|             700           1.567                               0.328E+003
 RTBSE|             701           1.563                               0.328E+003
 RTBSE|             702           1.558                               0.328E+003
 RTBSE|             703           1.566                               0.328E+003
 RTBSE|             704           1.567                               0.328E+003
 RTBSE|             705           1.572                               0.328E+003
 RTBSE|             706           1.581                               0.328E+003
 RTBSE|             707           1.565                               0.328E+003
 RTBSE|             708           1.595                               0.328E+003
 RTBSE|             709           1.569                               0.328E+003
 RTBSE|             710           1.582                               0.328E+003
 RTBSE|             711           1.634                               0.328E+003
 RTBSE|             712           1.597                               0.328E+003
 RTBSE|             713           1.661                               0.328E+003
 RTBSE|             714           1.584                               0.328E+003
 RTBSE|             715           1.602                               0.328E+003
 RTBSE|             716           1.573                               0.328E+003
 RTBSE|             717           1.567                               0.328E+003
 RTBSE|             718           1.566                               0.328E+003
 RTBSE|             719           1.566                               0.328E+003
 RTBSE|             720           1.565                               0.328E+003
 RTBSE|             721           1.562                               0.328E+003
 RTBSE|             722           1.568                               0.328E+003
 RTBSE|             723           1.571                               0.328E+003
 RTBSE|             724           1.570                               0.328E+003
 RTBSE|             725           1.572                               0.328E+003
 RTBSE|             726           1.568                               0.328E+003
 RTBSE|             727           1.568                               0.328E+003
 RTBSE|             728           1.570                               0.328E+003
 RTBSE|             729           1.588                               0.328E+003
 RTBSE|             730           1.659                               0.328E+003
 RTBSE|             731           1.593                               0.328E+003
 RTBSE|             732           1.668                               0.328E+003
 RTBSE|             733           1.643                               0.328E+003
 RTBSE|             734           1.608                               0.328E+003
 RTBSE|             735           1.574                               0.328E+003
 RTBSE|             736           1.570                               0.328E+003
 RTBSE|             737           1.588                               0.328E+003
 RTBSE|             738           1.581                               0.328E+003
 RTBSE|             739           1.584                               0.328E+003
 RTBSE|             740           1.567                               0.328E+003
 RTBSE|             741           1.568                               0.328E+003
 RTBSE|             742           1.574                               0.328E+003
 RTBSE|             743           1.571                               0.328E+003
 RTBSE|             744           1.570                               0.328E+003
 RTBSE|             745           1.578                               0.328E+003
 RTBSE|             746           1.571                               0.328E+003
 RTBSE|             747           1.587                               0.328E+003
 RTBSE|             748           1.596                               0.328E+003
 RTBSE|             749           1.645                               0.328E+003
 RTBSE|             750           1.603                               0.328E+003
 RTBSE|             751           1.650                               0.328E+003
 RTBSE|             752           1.593                               0.328E+003
 RTBSE|             753           1.601                               0.328E+003
 RTBSE|             754           1.577                               0.328E+003
 RTBSE|             755           1.581                               0.328E+003
 RTBSE|             756           1.573                               0.328E+003
 RTBSE|             757           1.571                               0.328E+003
 RTBSE|             758           1.579                               0.328E+003
 RTBSE|             759           1.567                               0.328E+003
 RTBSE|             760           1.569                               0.328E+003
 RTBSE|             761           1.571                               0.328E+003
 RTBSE|             762           1.566                               0.328E+003
 RTBSE|             763           1.571                               0.328E+003
 RTBSE|             764           1.575                               0.328E+003
 RTBSE|             765           1.577                               0.328E+003
 RTBSE|             766           1.568                               0.328E+003
 RTBSE|             767           1.664                               0.328E+003
 RTBSE|             768           1.584                               0.328E+003
 RTBSE|             769           1.596                               0.328E+003
 RTBSE|             770           1.696                               0.328E+003
 RTBSE|             771           1.588                               0.328E+003
 RTBSE|             772           1.584                               0.328E+003
 RTBSE|             773           1.573                               0.328E+003
 RTBSE|             774           1.566                               0.328E+003
 RTBSE|             775           1.569                               0.328E+003
 RTBSE|             776           1.566                               0.328E+003
 RTBSE|             777           1.567                               0.328E+003
 RTBSE|             778           1.569                               0.328E+003
 RTBSE|             779           1.572                               0.328E+003
 RTBSE|             780           1.568                               0.328E+003
 RTBSE|             781           1.569                               0.328E+003
 RTBSE|             782           1.566                               0.328E+003
 RTBSE|             783           1.567                               0.328E+003
 RTBSE|             784           1.553                               0.328E+003
 RTBSE|             785           1.555                               0.328E+003
 RTBSE|             786           1.633                               0.328E+003
 RTBSE|             787           1.567                               0.328E+003
 RTBSE|             788           1.612                               0.328E+003
 RTBSE|             789           1.634                               0.328E+003
 RTBSE|             790           1.577                               0.328E+003
 RTBSE|             791           1.599                               0.328E+003
 RTBSE|             792           1.555                               0.328E+003
 RTBSE|             793           1.560                               0.328E+003
 RTBSE|             794           1.563                               0.328E+003
 RTBSE|             795           1.566                               0.328E+003
 RTBSE|             796           1.568                               0.328E+003
 RTBSE|             797           1.574                               0.328E+003
 RTBSE|             798           1.574                               0.328E+003
 RTBSE|             799           1.569                               0.328E+003
 RTBSE|             800           1.564                               0.328E+003
 RTBSE|             801           1.568                               0.328E+003
 RTBSE|             802           1.573                               0.328E+003
 RTBSE|             803           1.566                               0.328E+003
 RTBSE|             804           1.573                               0.328E+003
 RTBSE|             805           1.693                               0.328E+003
 RTBSE|             806           1.583                               0.328E+003
 RTBSE|             807           1.609                               0.328E+003
 RTBSE|             808           1.698                               0.328E+003
 RTBSE|             809           1.563                               0.328E+003
 RTBSE|             810           1.607                               0.328E+003
 RTBSE|             811           1.563                               0.328E+003
 RTBSE|             812           1.574                               0.328E+003
 RTBSE|             813           1.566                               0.328E+003
 RTBSE|             814           1.575                               0.328E+003
 RTBSE|             815           1.576                               0.328E+003
 RTBSE|             816           1.577                               0.328E+003
 RTBSE|             817           1.588                               0.328E+003
 RTBSE|             818           1.581                               0.328E+003
 RTBSE|             819           1.582                               0.328E+003
 RTBSE|             820           1.575                               0.328E+003
 RTBSE|             821           1.570                               0.328E+003
 RTBSE|             822           1.582                               0.328E+003
 RTBSE|             823           1.595                               0.328E+003
 RTBSE|             824           1.625                               0.328E+003
 RTBSE|             825           1.595                               0.328E+003
 RTBSE|             826           1.653                               0.328E+003
 RTBSE|             827           1.623                               0.328E+003
 RTBSE|             828           1.611                               0.328E+003
 RTBSE|             829           1.585                               0.328E+003
 RTBSE|             830           1.577                               0.328E+003
 RTBSE|             831           1.569                               0.328E+003
 RTBSE|             832           1.566                               0.328E+003
 RTBSE|             833           1.568                               0.328E+003
 RTBSE|             834           1.566                               0.328E+003
 RTBSE|             835           1.568                               0.328E+003
 RTBSE|             836           1.574                               0.328E+003
 RTBSE|             837           1.609                               0.328E+003
 RTBSE|             838           1.572                               0.328E+003
 RTBSE|             839           1.565                               0.328E+003
 RTBSE|             840           1.570                               0.328E+003
 RTBSE|             841           1.573                               0.328E+003
 RTBSE|             842           1.591                               0.328E+003
 RTBSE|             843           1.692                               0.328E+003
 RTBSE|             844           1.560                               0.328E+003
 RTBSE|             845           1.660                               0.328E+003
 RTBSE|             846           1.627                               0.328E+003
 RTBSE|             847           1.600                               0.328E+003
 RTBSE|             848           1.563                               0.328E+003
 RTBSE|             849           1.564                               0.328E+003
 RTBSE|             850           1.566                               0.328E+003
 RTBSE|             851           1.580                               0.328E+003
 RTBSE|             852           1.563                               0.328E+003
 RTBSE|             853           1.564                               0.328E+003
 RTBSE|             854           1.574                               0.328E+003
 RTBSE|             855           1.564                               0.328E+003
 RTBSE|             856           1.567                               0.328E+003
 RTBSE|             857           1.566                               0.328E+003
 RTBSE|             858           1.568                               0.328E+003
 RTBSE|             859           1.579                               0.328E+003
 RTBSE|             860           1.585                               0.328E+003
 RTBSE|             861           1.607                               0.328E+003
 RTBSE|             862           1.665                               0.328E+003
 RTBSE|             863           1.616                               0.328E+003
 RTBSE|             864           1.681                               0.328E+003
 RTBSE|             865           1.605                               0.328E+003
 RTBSE|             866           1.599                               0.328E+003
 RTBSE|             867           1.586                               0.328E+003
 RTBSE|             868           1.595                               0.328E+003
 RTBSE|             869           1.584                               0.328E+003
 RTBSE|             870           1.581                               0.328E+003
 RTBSE|             871           1.578                               0.328E+003
 RTBSE|             872           1.564                               0.328E+003
 RTBSE|             873           1.568                               0.328E+003
 RTBSE|             874           1.563                               0.328E+003
 RTBSE|             875           1.573                               0.328E+003
 RTBSE|             876           1.583                               0.328E+003
 RTBSE|             877           1.570                               0.328E+003
 RTBSE|             878           1.570                               0.328E+003
 RTBSE|             879           1.570                               0.328E+003
 RTBSE|             880           1.660                               0.328E+003
 RTBSE|             881           1.617                               0.328E+003
 RTBSE|             882           1.608                               0.328E+003
 RTBSE|             883           1.686                               0.328E+003
 RTBSE|             884           1.589                               0.328E+003
 RTBSE|             885           1.587                               0.328E+003
 RTBSE|             886           1.567                               0.328E+003
 RTBSE|             887           1.567                               0.328E+003
 RTBSE|             888           1.566                               0.328E+003
 RTBSE|             889           1.573                               0.328E+003
 RTBSE|             890           1.579                               0.328E+003
 RTBSE|             891           1.563                               0.328E+003
 RTBSE|             892           1.576                               0.328E+003
 RTBSE|             893           1.559                               0.328E+003
 RTBSE|             894           1.566                               0.328E+003
 RTBSE|             895           1.562                               0.328E+003
 RTBSE|             896           1.569                               0.328E+003
 RTBSE|             897           1.574                               0.328E+003
 RTBSE|             898           1.570                               0.328E+003
 RTBSE|             899           1.648                               0.328E+003
 RTBSE|             900           1.583                               0.328E+003
 RTBSE|             901           1.604                               0.328E+003
 RTBSE|             902           1.632                               0.328E+003
 RTBSE|             903           1.571                               0.328E+003
 RTBSE|             904           1.606                               0.328E+003
 RTBSE|             905           1.570                               0.328E+003
 RTBSE|             906           1.567                               0.328E+003
 RTBSE|             907           1.567                               0.328E+003
 RTBSE|             908           1.570                               0.328E+003
 RTBSE|             909           1.569                               0.328E+003
 RTBSE|             910           1.566                               0.328E+003
 RTBSE|             911           1.577                               0.328E+003
 RTBSE|             912           1.578                               0.328E+003
 RTBSE|             913           1.563                               0.328E+003
 RTBSE|             914           1.568                               0.328E+003
 RTBSE|             915           1.564                               0.328E+003
 RTBSE|             916           1.576                               0.328E+003
 RTBSE|             917           1.574                               0.328E+003
 RTBSE|             918           1.710                               0.328E+003
 RTBSE|             919           1.582                               0.328E+003
 RTBSE|             920           1.613                               0.328E+003
 RTBSE|             921           1.678                               0.328E+003
 RTBSE|             922           1.574                               0.328E+003
 RTBSE|             923           1.600                               0.328E+003
 RTBSE|             924           1.586                               0.328E+003
 RTBSE|             925           1.583                               0.328E+003
 RTBSE|             926           1.583                               0.328E+003
 RTBSE|             927           1.586                               0.328E+003
 RTBSE|             928           1.586                               0.328E+003
 RTBSE|             929           1.580                               0.328E+003
 RTBSE|             930           1.579                               0.328E+003
 RTBSE|             931           1.586                               0.328E+003
 RTBSE|             932           1.580                               0.328E+003
 RTBSE|             933           1.578                               0.328E+003
 RTBSE|             934           1.589                               0.328E+003
 RTBSE|             935           1.575                               0.328E+003
 RTBSE|             936           1.593                               0.328E+003
 RTBSE|             937           1.646                               0.328E+003
 RTBSE|             938           1.601                               0.328E+003
 RTBSE|             939           1.690                               0.328E+003
 RTBSE|             940           1.599                               0.328E+003
 RTBSE|             941           1.610                               0.328E+003
 RTBSE|             942           1.587                               0.328E+003
 RTBSE|             943           1.592                               0.328E+003
 RTBSE|             944           1.587                               0.328E+003
 RTBSE|             945           1.597                               0.328E+003
 RTBSE|             946           1.587                               0.328E+003
 RTBSE|             947           1.594                               0.328E+003
 RTBSE|             948           1.602                               0.328E+003
 RTBSE|             949           1.610                               0.328E+003
 RTBSE|             950           1.583                               0.328E+003
 RTBSE|             951           1.595                               0.328E+003
 RTBSE|             952           1.599                               0.328E+003
 RTBSE|             953           1.587                               0.328E+003
 RTBSE|             954           1.586                               0.328E+003
 RTBSE|             955           1.599                               0.328E+003
 RTBSE|             956           1.686                               0.328E+003
 RTBSE|             957           1.646                               0.328E+003
 RTBSE|             958           1.664                               0.328E+003
 RTBSE|             959           1.654                               0.328E+003
 RTBSE|             960           1.609                               0.328E+003
 RTBSE|             961           1.577                               0.328E+003
 RTBSE|             962           1.573                               0.328E+003
 RTBSE|             963           1.592                               0.328E+003
 RTBSE|             964           1.581                               0.328E+003
 RTBSE|             965           1.580                               0.328E+003
 RTBSE|             966           1.580                               0.328E+003
 RTBSE|             967           1.593                               0.328E+003
 RTBSE|             968           1.594                               0.328E+003
 RTBSE|             969           1.593                               0.328E+003
 RTBSE|             970           1.592                               0.328E+003
 RTBSE|             971           1.596                               0.328E+003
 RTBSE|             972           1.589                               0.328E+003
 RTBSE|             973           1.612                               0.328E+003
 RTBSE|             974           1.725                               0.328E+003
 RTBSE|             975           1.647                               0.328E+003
 RTBSE|             976           1.694                               0.328E+003
 RTBSE|             977           1.684                               0.328E+003
 RTBSE|             978           1.643                               0.328E+003
 RTBSE|             979           1.634                               0.328E+003
 RTBSE|             980           1.632                               0.328E+003
 RTBSE|             981           1.647                               0.328E+003
 RTBSE|             982           1.636                               0.328E+003
 RTBSE|             983           1.619                               0.328E+003
 RTBSE|             984           1.602                               0.328E+003
 RTBSE|             985           1.580                               0.328E+003
 RTBSE|             986           1.574                               0.328E+003
 RTBSE|             987           1.581                               0.328E+003
 RTBSE|             988           1.580                               0.328E+003
 RTBSE|             989           1.589                               0.328E+003
 RTBSE|             990           1.585                               0.328E+003
 RTBSE|             991           1.578                               0.328E+003
 RTBSE|             992           1.608                               0.328E+003
 RTBSE|             993           1.689                               0.328E+003
 RTBSE|             994           1.639                               0.328E+003
 RTBSE|             995           1.658                               0.328E+003
 RTBSE|             996           1.652                               0.328E+003
 RTBSE|             997           1.600                               0.328E+003
 RTBSE|             998           1.576                               0.328E+003
 RTBSE|             999           1.581                               0.328E+003
 RTBSE|            1000           1.574                               0.328E+003
 RTBSE|            1001           1.574                               0.328E+003
 RTBSE|            1002           1.565                               0.328E+003
 RTBSE|            1003           1.568                               0.328E+003
 RTBSE|            1004           1.564                               0.328E+003
 RTBSE|            1005           1.564                               0.328E+003
 RTBSE|            1006           1.568                               0.328E+003
 RTBSE|            1007           1.563                               0.328E+003
 RTBSE|            1008           1.564                               0.328E+003
 RTBSE|            1009           1.560                               0.328E+003
 RTBSE|            1010           1.589                               0.328E+003
 RTBSE|            1011           1.644                               0.328E+003
 RTBSE|            1012           1.576                               0.328E+003
 RTBSE|            1013           1.590                               0.328E+003
 RTBSE|            1014           1.615                               0.328E+003
 RTBSE|            1015           1.579                               0.328E+003
 RTBSE|            1016           1.582                               0.328E+003
 RTBSE|            1017           1.559                               0.328E+003
 RTBSE|            1018           1.560                               0.328E+003
 RTBSE|            1019           1.580                               0.328E+003
 RTBSE|            1020           1.564                               0.328E+003
 RTBSE|            1021           1.566                               0.328E+003
 RTBSE|            1022           1.568                               0.328E+003
 RTBSE|            1023           1.569                               0.328E+003
 RTBSE|            1024           1.569                               0.328E+003
 RTBSE|            1025           1.569                               0.328E+003
 RTBSE|            1026           1.565                               0.328E+003
 RTBSE|            1027           1.573                               0.328E+003
 RTBSE|            1028           1.565                               0.328E+003
 RTBSE|            1029           1.569                               0.328E+003
 RTBSE|            1030           1.637                               0.328E+003
 RTBSE|            1031           1.619                               0.328E+003
 RTBSE|            1032           1.599                               0.328E+003
 RTBSE|            1033           1.633                               0.328E+003
 RTBSE|            1034           1.604                               0.328E+003
 RTBSE|            1035           1.590                               0.328E+003
 RTBSE|            1036           1.559                               0.328E+003
 RTBSE|            1037           1.559                               0.328E+003
 RTBSE|            1038           1.565                               0.328E+003
 RTBSE|            1039           1.564                               0.328E+003
 RTBSE|            1040           1.571                               0.328E+003
 RTBSE|            1041           1.566                               0.328E+003
 RTBSE|            1042           1.567                               0.328E+003
 RTBSE|            1043           1.562                               0.328E+003
 RTBSE|            1044           1.565                               0.328E+003
 RTBSE|            1045           1.563                               0.328E+003
 RTBSE|            1046           1.561                               0.328E+003
 RTBSE|            1047           1.562                               0.328E+003
 RTBSE|            1048           1.568                               0.328E+003
 RTBSE|            1049           1.651                               0.328E+003
 RTBSE|            1050           1.580                               0.328E+003
 RTBSE|            1051           1.592                               0.328E+003
 RTBSE|            1052           1.658                               0.328E+003
 RTBSE|            1053           1.574                               0.328E+003
 RTBSE|            1054           1.594                               0.328E+003
 RTBSE|            1055           1.575                               0.328E+003
 RTBSE|            1056           1.576                               0.328E+003
 RTBSE|            1057           1.585                               0.328E+003
 RTBSE|            1058           1.574                               0.328E+003
 RTBSE|            1059           1.569                               0.328E+003
 RTBSE|            1060           1.575                               0.328E+003
 RTBSE|            1061           1.577                               0.328E+003
 RTBSE|            1062           1.577                               0.328E+003
 RTBSE|            1063           1.576                               0.328E+003
 RTBSE|            1064           1.575                               0.328E+003
 RTBSE|            1065           1.575                               0.328E+003
 RTBSE|            1066           1.573                               0.328E+003
 RTBSE|            1067           1.598                               0.328E+003
 RTBSE|            1068           1.649                               0.328E+003
 RTBSE|            1069           1.677                               0.328E+003
 RTBSE|            1070           1.694                               0.328E+003
 RTBSE|            1071           1.693                               0.328E+003
 RTBSE|            1072           1.617                               0.328E+003
 RTBSE|            1073           1.616                               0.328E+003
 RTBSE|            1074           1.593                               0.328E+003
 RTBSE|            1075           1.624                               0.328E+003
 RTBSE|            1076           1.606                               0.328E+003
 RTBSE|            1077           1.582                               0.328E+003
 RTBSE|            1078           1.582                               0.328E+003
 RTBSE|            1079           1.608                               0.328E+003
 RTBSE|            1080           1.623                               0.328E+003
 RTBSE|            1081           1.593                               0.328E+003
 RTBSE|            1082           1.575                               0.328E+003
 RTBSE|            1083           1.607                               0.328E+003
 RTBSE|            1084           1.605                               0.328E+003
 RTBSE|            1085           1.592                               0.328E+003
 RTBSE|            1086           1.665                               0.328E+003
 RTBSE|            1087           1.660                               0.328E+003
 RTBSE|            1088           1.659                               0.328E+003
 RTBSE|            1089           1.665                               0.328E+003
 RTBSE|            1090           1.634                               0.328E+003
 RTBSE|            1091           1.619                               0.328E+003
 RTBSE|            1092           1.591                               0.328E+003
 RTBSE|            1093           1.577                               0.328E+003
 RTBSE|            1094           2.142                               0.328E+003
 RTBSE|            1095           4.339                               0.328E+003
 RTBSE|            1096           1.578                               0.328E+003
 RTBSE|            1097           1.609                               0.328E+003
 RTBSE|            1098           1.614                               0.328E+003
 RTBSE|            1099           1.615                               0.328E+003
 RTBSE|            1100           1.606                               0.328E+003
 RTBSE|            1101           1.597                               0.328E+003
 RTBSE|            1102           1.654                               0.328E+003
 RTBSE|            1103           1.669                               0.328E+003
 RTBSE|            1104           1.668                               0.328E+003
 RTBSE|            1105           1.713                               0.328E+003
 RTBSE|            1106           1.680                               0.328E+003
 RTBSE|            1107           1.645                               0.328E+003
 RTBSE|            1108           1.614                               0.328E+003
 RTBSE|            1109           1.602                               0.328E+003
 RTBSE|            1110           1.568                               0.328E+003
 RTBSE|            1111           1.572                               0.328E+003
 RTBSE|            1112           1.568                               0.328E+003
 RTBSE|            1113           1.570                               0.328E+003
 RTBSE|            1114           1.571                               0.328E+003
 RTBSE|            1115           1.573                               0.328E+003
 RTBSE|            1116           1.574                               0.328E+003
 RTBSE|            1117           1.574                               0.328E+003
 RTBSE|            1118           1.582                               0.328E+003
 RTBSE|            1119           1.587                               0.328E+003
 RTBSE|            1120           1.570                               0.328E+003
 RTBSE|            1121           1.584                               0.328E+003
 RTBSE|            1122           1.627                               0.328E+003
 RTBSE|            1123           1.599                               0.328E+003
 RTBSE|            1124           1.670                               0.328E+003
 RTBSE|            1125           1.606                               0.328E+003
 RTBSE|            1126           1.601                               0.328E+003
 RTBSE|            1127           1.576                               0.328E+003
 RTBSE|            1128           1.580                               0.328E+003
 RTBSE|            1129           1.584                               0.328E+003
 RTBSE|            1130           1.586                               0.328E+003
 RTBSE|            1131           1.583                               0.328E+003
 RTBSE|            1132           1.578                               0.328E+003
 RTBSE|            1133           1.585                               0.328E+003
 RTBSE|            1134           1.582                               0.328E+003
 RTBSE|            1135           1.588                               0.328E+003
 RTBSE|            1136           1.573                               0.328E+003
 RTBSE|            1137           1.580                               0.328E+003
 RTBSE|            1138           1.576                               0.328E+003
 RTBSE|            1139           1.575                               0.328E+003
 RTBSE|            1140           1.631                               0.328E+003
 RTBSE|            1141           1.634                               0.328E+003
 RTBSE|            1142           1.626                               0.328E+003
 RTBSE|            1143           1.642                               0.328E+003
 RTBSE|            1144           1.629                               0.328E+003
 RTBSE|            1145           1.597                               0.328E+003
 RTBSE|            1146           1.573                               0.328E+003
 RTBSE|            1147           1.578                               0.328E+003
 RTBSE|            1148           1.577                               0.328E+003
 RTBSE|            1149           1.571                               0.328E+003
 RTBSE|            1150           1.577                               0.328E+003
 RTBSE|            1151           1.592                               0.328E+003
 RTBSE|            1152           1.579                               0.328E+003
 RTBSE|            1153           1.579                               0.328E+003
 RTBSE|            1154           1.578                               0.328E+003
 RTBSE|            1155           1.576                               0.328E+003
 RTBSE|            1156           1.573                               0.328E+003
 RTBSE|            1157           1.571                               0.328E+003
 RTBSE|            1158           1.577                               0.328E+003
 RTBSE|            1159           1.629                               0.328E+003
 RTBSE|            1160           1.586                               0.328E+003
 RTBSE|            1161           1.607                               0.328E+003
 RTBSE|            1162           1.564                               0.328E+003
 RTBSE|            1163           1.568                               0.328E+003
 RTBSE|            1164           1.558                               0.328E+003
 RTBSE|            1165           1.558                               0.328E+003
 RTBSE|            1166           1.563                               0.328E+003
 RTBSE|            1167           1.561                               0.328E+003
 RTBSE|            1168           1.566                               0.328E+003
 RTBSE|            1169           1.560                               0.328E+003
 RTBSE|            1170           1.562                               0.328E+003
 RTBSE|            1171           1.562                               0.328E+003
 RTBSE|            1172           1.567                               0.328E+003
 RTBSE|            1173           1.559                               0.328E+003
 RTBSE|            1174           1.569                               0.328E+003
 RTBSE|            1175           1.572                               0.328E+003
 RTBSE|            1176           1.572                               0.328E+003
 RTBSE|            1177           1.589                               0.328E+003
 RTBSE|            1178           1.615                               0.328E+003
 RTBSE|            1179           1.631                               0.328E+003
 RTBSE|            1180           1.612                               0.328E+003
 RTBSE|            1181           1.652                               0.328E+003
 RTBSE|            1182           1.653                               0.328E+003
 RTBSE|            1183           1.576                               0.328E+003
 RTBSE|            1184           1.566                               0.328E+003
 RTBSE|            1185           1.570                               0.328E+003
 RTBSE|            1186           1.577                               0.328E+003
 RTBSE|            1187           1.574                               0.328E+003
 RTBSE|            1188           1.570                               0.328E+003
 RTBSE|            1189           1.578                               0.328E+003
 RTBSE|            1190           1.568                               0.328E+003
 RTBSE|            1191           1.564                               0.328E+003
 RTBSE|            1192           1.571                               0.328E+003
 RTBSE|            1193           1.569                               0.328E+003
 RTBSE|            1194           1.565                               0.328E+003
 RTBSE|            1195           1.570                               0.328E+003
 RTBSE|            1196           1.599                               0.328E+003
 RTBSE|            1197           1.624                               0.328E+003
 RTBSE|            1198           1.579                               0.328E+003
 RTBSE|            1199           1.659                               0.328E+003
 RTBSE|            1200           1.582                               0.328E+003
 RTBSE|            1201           1.589                               0.328E+003
 RTBSE|            1202           1.577                               0.328E+003
 RTBSE|            1203           1.575                               0.328E+003
 RTBSE|            1204           1.578                               0.328E+003
 RTBSE|            1205           1.590                               0.328E+003
 RTBSE|            1206           1.576                               0.328E+003
 RTBSE|            1207           1.574                               0.328E+003
 RTBSE|            1208           1.584                               0.328E+003
 RTBSE|            1209           1.573                               0.328E+003
 RTBSE|            1210           1.568                               0.328E+003
 RTBSE|            1211           1.568                               0.328E+003
 RTBSE|            1212           1.566                               0.328E+003
 RTBSE|            1213           1.583                               0.328E+003
 RTBSE|            1214           1.561                               0.328E+003
 RTBSE|            1215           1.583                               0.328E+003
 RTBSE|            1216           1.624                               0.328E+003
 RTBSE|            1217           1.603                               0.328E+003
 RTBSE|            1218           1.710                               0.328E+003
 RTBSE|            1219           1.630                               0.328E+003
 RTBSE|            1220           1.588                               0.328E+003
 RTBSE|            1221           1.566                               0.328E+003
 RTBSE|            1222           1.561                               0.328E+003
 RTBSE|            1223           1.566                               0.328E+003
 RTBSE|            1224           1.558                               0.328E+003
 RTBSE|            1225           1.559                               0.328E+003
 RTBSE|            1226           1.570                               0.328E+003
 RTBSE|            1227           1.559                               0.328E+003
 RTBSE|            1228           1.563                               0.328E+003
 RTBSE|            1229           1.562                               0.328E+003
 RTBSE|            1230           1.558                               0.328E+003
 RTBSE|            1231           1.562                               0.328E+003
 RTBSE|            1232           1.561                               0.328E+003
 RTBSE|            1233           1.575                               0.328E+003
 RTBSE|            1234           1.591                               0.328E+003
 RTBSE|            1235           1.653                               0.328E+003
 RTBSE|            1236           1.590                               0.328E+003
 RTBSE|            1237           1.685                               0.328E+003
 RTBSE|            1238           1.585                               0.328E+003
 RTBSE|            1239           1.591                               0.328E+003
 RTBSE|            1240           1.587                               0.328E+003
 RTBSE|            1241           1.614                               0.328E+003
 RTBSE|            1242           1.589                               0.328E+003
 RTBSE|            1243           1.574                               0.328E+003
 RTBSE|            1244           1.574                               0.328E+003
 RTBSE|            1245           1.566                               0.328E+003
 RTBSE|            1246           1.584                               0.328E+003
 RTBSE|            1247           1.612                               0.328E+003
 RTBSE|            1248           1.580                               0.328E+003
 RTBSE|            1249           1.558                               0.328E+003
 RTBSE|            1250           1.552                               0.328E+003
 RTBSE|            1251           1.593                               0.328E+003
 RTBSE|            1252           1.587                               0.328E+003
 RTBSE|            1253           1.657                               0.328E+003
 RTBSE|            1254           1.659                               0.328E+003
 RTBSE|            1255           1.613                               0.328E+003
 RTBSE|            1256           1.669                               0.328E+003
 RTBSE|            1257           1.653                               0.328E+003
 RTBSE|            1258           1.625                               0.328E+003
 RTBSE|            1259           1.590                               0.328E+003
 RTBSE|            1260           1.606                               0.328E+003
 RTBSE|            1261           1.619                               0.328E+003
 RTBSE|            1262           1.632                               0.328E+003
 RTBSE|            1263           1.623                               0.328E+003
 RTBSE|            1264           1.615                               0.328E+003
 RTBSE|            1265           1.633                               0.328E+003
 RTBSE|            1266           1.649                               0.328E+003
 RTBSE|            1267           1.605                               0.328E+003
 RTBSE|            1268           1.621                               0.328E+003
 RTBSE|            1269           1.627                               0.328E+003
 RTBSE|            1270           1.579                               0.328E+003
 RTBSE|            1271           1.612                               0.328E+003
 RTBSE|            1272           1.652                               0.328E+003
 RTBSE|            1273           1.571                               0.328E+003
 RTBSE|            1274           1.642                               0.328E+003
 RTBSE|            1275           1.579                               0.328E+003
 RTBSE|            1276           1.627                               0.328E+003
 RTBSE|            1277           1.561                               0.328E+003
 RTBSE|            1278           1.563                               0.328E+003
 RTBSE|            1279           1.559                               0.328E+003
 RTBSE|            1280           1.558                               0.328E+003
 RTBSE|            1281           1.554                               0.328E+003
 RTBSE|            1282           1.552                               0.328E+003
 RTBSE|            1283           1.556                               0.328E+003
 RTBSE|            1284           1.553                               0.328E+003
 RTBSE|            1285           1.557                               0.328E+003
 RTBSE|            1286           1.556                               0.328E+003
 RTBSE|            1287           1.547                               0.328E+003
 RTBSE|            1288           1.549                               0.328E+003
 RTBSE|            1289           1.552                               0.328E+003
 RTBSE|            1290           1.594                               0.328E+003
 RTBSE|            1291           1.608                               0.328E+003
 RTBSE|            1292           1.630                               0.328E+003
 RTBSE|            1293           1.655                               0.328E+003
 RTBSE|            1294           1.580                               0.328E+003
 RTBSE|            1295           1.647                               0.328E+003
 RTBSE|            1296           1.569                               0.328E+003
 RTBSE|            1297           1.568                               0.328E+003
 RTBSE|            1298           1.569                               0.328E+003
 RTBSE|            1299           1.567                               0.328E+003
 RTBSE|            1300           1.568                               0.328E+003
 RTBSE|            1301           1.565                               0.328E+003
 RTBSE|            1302           1.557                               0.328E+003
 RTBSE|            1303           1.574                               0.328E+003
 RTBSE|            1304           1.560                               0.328E+003
 RTBSE|            1305           1.558                               0.328E+003
 RTBSE|            1306           1.587                               0.328E+003
 RTBSE|            1307           1.606                               0.328E+003
 RTBSE|            1308           1.587                               0.328E+003
 RTBSE|            1309           1.617                               0.328E+003
 RTBSE|            1310           1.678                               0.328E+003
 RTBSE|            1311           1.588                               0.328E+003
 RTBSE|            1312           1.658                               0.328E+003
 RTBSE|            1313           1.644                               0.328E+003
 RTBSE|            1314           1.588                               0.328E+003
 RTBSE|            1315           1.562                               0.328E+003
 RTBSE|            1316           1.565                               0.328E+003
 RTBSE|            1317           1.564                               0.328E+003
 RTBSE|            1318           1.561                               0.328E+003
 RTBSE|            1319           1.564                               0.328E+003
 RTBSE|            1320           1.588                               0.328E+003
 RTBSE|            1321           1.556                               0.328E+003
 RTBSE|            1322           1.564                               0.328E+003
 RTBSE|            1323           1.561                               0.328E+003
 RTBSE|            1324           1.561                               0.328E+003
 RTBSE|            1325           1.559                               0.328E+003
 RTBSE|            1326           1.567                               0.328E+003
 RTBSE|            1327           1.555                               0.328E+003
 RTBSE|            1328           1.601                               0.328E+003
 RTBSE|            1329           1.623                               0.328E+003
 RTBSE|            1330           1.663                               0.328E+003
 RTBSE|            1331           1.634                               0.328E+003
 RTBSE|            1332           1.639                               0.328E+003
 RTBSE|            1333           1.589                               0.328E+003
 RTBSE|            1334           1.566                               0.328E+003
 RTBSE|            1335           1.565                               0.328E+003
 RTBSE|            1336           1.581                               0.328E+003
 RTBSE|            1337           1.554                               0.328E+003
 RTBSE|            1338           1.584                               0.328E+003
 RTBSE|            1339           1.568                               0.328E+003
 RTBSE|            1340           1.558                               0.328E+003
 RTBSE|            1341           1.568                               0.328E+003
 RTBSE|            1342           1.557                               0.328E+003
 RTBSE|            1343           1.574                               0.328E+003
 RTBSE|            1344           1.560                               0.328E+003
 RTBSE|            1345           1.567                               0.328E+003
 RTBSE|            1346           1.563                               0.328E+003
 RTBSE|            1347           1.647                               0.328E+003
 RTBSE|            1348           1.580                               0.328E+003
 RTBSE|            1349           1.598                               0.328E+003
 RTBSE|            1350           1.621                               0.328E+003
 RTBSE|            1351           1.590                               0.328E+003
 RTBSE|            1352           1.586                               0.328E+003
 RTBSE|            1353           1.573                               0.328E+003
 RTBSE|            1354           1.571                               0.328E+003
 RTBSE|            1355           1.564                               0.328E+003
 RTBSE|            1356           1.570                               0.328E+003
 RTBSE|            1357           1.564                               0.328E+003
 RTBSE|            1358           1.564                               0.328E+003
 RTBSE|            1359           1.569                               0.328E+003
 RTBSE|            1360           1.567                               0.328E+003
 RTBSE|            1361           1.564                               0.328E+003
 RTBSE|            1362           1.564                               0.328E+003
 RTBSE|            1363           1.567                               0.328E+003
 RTBSE|            1364           1.563                               0.328E+003
 RTBSE|            1365           1.566                               0.328E+003
 RTBSE|            1366           1.646                               0.328E+003
 RTBSE|            1367           1.639                               0.328E+003
 RTBSE|            1368           1.609                               0.328E+003
 RTBSE|            1369           1.662                               0.328E+003
 RTBSE|            1370           1.643                               0.328E+003
 RTBSE|            1371           1.589                               0.328E+003
 RTBSE|            1372           1.562                               0.328E+003
 RTBSE|            1373           1.559                               0.328E+003
 RTBSE|            1374           1.579                               0.328E+003
 RTBSE|            1375           1.569                               0.328E+003
 RTBSE|            1376           1.556                               0.328E+003
 RTBSE|            1377           1.560                               0.328E+003
 RTBSE|            1378           1.560                               0.328E+003
 RTBSE|            1379           1.562                               0.328E+003
 RTBSE|            1380           1.562                               0.328E+003
 RTBSE|            1381           1.559                               0.328E+003
 RTBSE|            1382           1.566                               0.328E+003
 RTBSE|            1383           1.560                               0.328E+003
 RTBSE|            1384           1.565                               0.328E+003
 RTBSE|            1385           1.633                               0.328E+003
 RTBSE|            1386           1.580                               0.328E+003
 RTBSE|            1387           1.618                               0.328E+003
 RTBSE|            1388           1.618                               0.328E+003
 RTBSE|            1389           1.567                               0.328E+003
 RTBSE|            1390           1.594                               0.328E+003
 RTBSE|            1391           1.560                               0.328E+003
 RTBSE|            1392           1.561                               0.328E+003
 RTBSE|            1393           1.570                               0.328E+003
 RTBSE|            1394           1.562                               0.328E+003
 RTBSE|            1395           1.560                               0.328E+003
 RTBSE|            1396           1.558                               0.328E+003
 RTBSE|            1397           1.565                               0.328E+003
 RTBSE|            1398           1.554                               0.328E+003
 RTBSE|            1399           1.556                               0.328E+003
 RTBSE|            1400           1.558                               0.328E+003
 RTBSE|            1401           1.557                               0.328E+003
 RTBSE|            1402           1.561                               0.328E+003
 RTBSE|            1403           1.577                               0.328E+003
 RTBSE|            1404           1.597                               0.328E+003
 RTBSE|            1405           1.598                               0.328E+003
 RTBSE|            1406           1.609                               0.328E+003
 RTBSE|            1407           1.613                               0.328E+003
 RTBSE|            1408           1.601                               0.328E+003
 RTBSE|            1409           1.591                               0.328E+003
 RTBSE|            1410           1.560                               0.328E+003
 RTBSE|            1411           1.558                               0.328E+003
 RTBSE|            1412           1.555                               0.328E+003
 RTBSE|            1413           1.565                               0.328E+003
 RTBSE|            1414           1.563                               0.328E+003
 RTBSE|            1415           1.564                               0.328E+003
 RTBSE|            1416           1.558                               0.328E+003
 RTBSE|            1417           1.561                               0.328E+003
 RTBSE|            1418           1.560                               0.328E+003
 RTBSE|            1419           1.561                               0.328E+003
 RTBSE|            1420           1.562                               0.328E+003
 RTBSE|            1421           1.554                               0.328E+003
 RTBSE|            1422           1.593                               0.328E+003
 RTBSE|            1423           1.626                               0.328E+003
 RTBSE|            1424           1.573                               0.328E+003
 RTBSE|            1425           1.601                               0.328E+003
 RTBSE|            1426           1.639                               0.328E+003
 RTBSE|            1427           1.575                               0.328E+003
 RTBSE|            1428           1.581                               0.328E+003
 RTBSE|            1429           1.573                               0.328E+003
 RTBSE|            1430           1.568                               0.328E+003
 RTBSE|            1431           1.574                               0.328E+003
 RTBSE|            1432           1.557                               0.328E+003
 RTBSE|            1433           1.562                               0.328E+003
 RTBSE|            1434           1.558                               0.328E+003
 RTBSE|            1435           1.558                               0.328E+003
 RTBSE|            1436           1.561                               0.328E+003
 RTBSE|            1437           1.566                               0.328E+003
 RTBSE|            1438           1.566                               0.328E+003
 RTBSE|            1439           1.564                               0.328E+003
 RTBSE|            1440           1.567                               0.328E+003
 RTBSE|            1441           1.576                               0.328E+003
 RTBSE|            1442           1.620                               0.328E+003
 RTBSE|            1443           1.631                               0.328E+003
 RTBSE|            1444           1.640                               0.328E+003
 RTBSE|            1445           1.617                               0.328E+003
 RTBSE|            1446           1.650                               0.328E+003
 RTBSE|            1447           1.568                               0.328E+003
 RTBSE|            1448           1.562                               0.328E+003
 RTBSE|            1449           1.566                               0.328E+003
 RTBSE|            1450           1.560                               0.328E+003
 RTBSE|            1451           1.563                               0.328E+003
 RTBSE|            1452           1.569                               0.328E+003
 RTBSE|            1453           1.568                               0.328E+003
 RTBSE|            1454           1.568                               0.328E+003
 RTBSE|            1455           1.566                               0.328E+003
 RTBSE|            1456           1.570                               0.328E+003
 RTBSE|            1457           1.568                               0.328E+003
 RTBSE|            1458           1.570                               0.328E+003
 RTBSE|            1459           1.575                               0.328E+003
 RTBSE|            1460           1.592                               0.328E+003
 RTBSE|            1461           1.626                               0.328E+003
 RTBSE|            1462           1.578                               0.328E+003
 RTBSE|            1463           1.655                               0.328E+003
 RTBSE|            1464           1.582                               0.328E+003
 RTBSE|            1465           1.568                               0.328E+003
 RTBSE|            1466           1.573                               0.328E+003
 RTBSE|            1467           1.560                               0.328E+003
 RTBSE|            1468           1.552                               0.328E+003
 RTBSE|            1469           1.573                               0.328E+003
 RTBSE|            1470           1.561                               0.328E+003
 RTBSE|            1471           1.550                               0.328E+003
 RTBSE|            1472           1.550                               0.328E+003
 RTBSE|            1473           1.563                               0.328E+003
 RTBSE|            1474           1.561                               0.328E+003
 RTBSE|            1475           1.551                               0.328E+003
 RTBSE|            1476           1.556                               0.328E+003
 RTBSE|            1477           1.555                               0.328E+003
 RTBSE|            1478           1.559                               0.328E+003
 RTBSE|            1479           1.561                               0.328E+003
 RTBSE|            1480           1.640                               0.328E+003
 RTBSE|            1481           1.625                               0.328E+003
 RTBSE|            1482           1.649                               0.328E+003
 RTBSE|            1483           1.562                               0.328E+003
 RTBSE|            1484           1.631                               0.328E+003
 RTBSE|            1485           1.559                               0.328E+003
 RTBSE|            1486           1.559                               0.328E+003
 RTBSE|            1487           1.551                               0.328E+003
 RTBSE|            1488           1.560                               0.328E+003
 RTBSE|            1489           1.551                               0.328E+003
 RTBSE|            1490           1.559                               0.328E+003
 RTBSE|            1491           1.544                               0.328E+003
 RTBSE|            1492           1.549                               0.328E+003
 RTBSE|            1493           1.558                               0.328E+003
 RTBSE|            1494           1.556                               0.328E+003
 RTBSE|            1495           1.558                               0.328E+003
 RTBSE|            1496           1.562                               0.328E+003
 RTBSE|            1497           1.559                               0.328E+003
 RTBSE|            1498           1.578                               0.328E+003
 RTBSE|            1499           1.633                               0.328E+003
 RTBSE|            1500           1.576                               0.328E+003
 RTBSE|            1501           1.667                               0.328E+003
 RTBSE|            1502           1.574                               0.328E+003
 RTBSE|            1503           1.570                               0.328E+003
 RTBSE|            1504           1.565                               0.328E+003
 RTBSE|            1505           1.564                               0.328E+003
 RTBSE|            1506           1.570                               0.328E+003
 RTBSE|            1507           1.576                               0.328E+003
 RTBSE|            1508           1.583                               0.328E+003
 RTBSE|            1509           1.571                               0.328E+003
 RTBSE|            1510           1.570                               0.328E+003
 RTBSE|            1511           1.574                               0.328E+003
 RTBSE|            1512           1.573                               0.328E+003
 RTBSE|            1513           1.580                               0.328E+003
 RTBSE|            1514           1.571                               0.328E+003
 RTBSE|            1515           1.572                               0.328E+003
 RTBSE|            1516           1.573                               0.328E+003
 RTBSE|            1517           1.578                               0.328E+003
 RTBSE|            1518           1.625                               0.328E+003
 RTBSE|            1519           1.608                               0.328E+003
 RTBSE|            1520           1.658                               0.328E+003
 RTBSE|            1521           1.587                               0.328E+003
 RTBSE|            1522           1.637                               0.328E+003
 RTBSE|            1523           1.570                               0.328E+003
 RTBSE|            1524           1.572                               0.328E+003
 RTBSE|            1525           1.568                               0.328E+003
 RTBSE|            1526           1.572                               0.328E+003
 RTBSE|            1527           1.571                               0.328E+003
 RTBSE|            1528           1.578                               0.328E+003
 RTBSE|            1529           1.569                               0.328E+003
 RTBSE|            1530           1.592                               0.328E+003
 RTBSE|            1531           1.573                               0.328E+003
 RTBSE|            1532           1.582                               0.328E+003
 RTBSE|            1533           1.577                               0.328E+003
 RTBSE|            1534           1.580                               0.328E+003
 RTBSE|            1535           1.574                               0.328E+003
 RTBSE|            1536           1.590                               0.328E+003
 RTBSE|            1537           1.635                               0.328E+003
 RTBSE|            1538           1.596                               0.328E+003
 RTBSE|            1539           1.638                               0.328E+003
 RTBSE|            1540           1.581                               0.328E+003
 RTBSE|            1541           1.596                               0.328E+003
 RTBSE|            1542           1.560                               0.328E+003
 RTBSE|            1543           1.576                               0.328E+003
 RTBSE|            1544           1.568                               0.328E+003
 RTBSE|            1545           1.573                               0.328E+003
 RTBSE|            1546           1.571                               0.328E+003
 RTBSE|            1547           1.564                               0.328E+003
 RTBSE|            1548           1.563                               0.328E+003
 RTBSE|            1549           1.563                               0.328E+003
 RTBSE|            1550           1.563                               0.328E+003
 RTBSE|            1551           1.568                               0.328E+003
 RTBSE|            1552           1.570                               0.328E+003
 RTBSE|            1553           1.565                               0.328E+003
 RTBSE|            1554           1.577                               0.328E+003
 RTBSE|            1555           1.574                               0.328E+003
 RTBSE|            1556           1.633                               0.328E+003
 RTBSE|            1557           1.632                               0.328E+003
 RTBSE|            1558           1.661                               0.328E+003
 RTBSE|            1559           1.579                               0.328E+003
 RTBSE|            1560           1.640                               0.328E+003
 RTBSE|            1561           1.567                               0.328E+003
 RTBSE|            1562           1.563                               0.328E+003
 RTBSE|            1563           1.568                               0.328E+003
 RTBSE|            1564           1.568                               0.328E+003
 RTBSE|            1565           1.568                               0.328E+003
 RTBSE|            1566           1.553                               0.328E+003
 RTBSE|            1567           1.566                               0.328E+003
 RTBSE|            1568           1.561                               0.328E+003
 RTBSE|            1569           1.566                               0.328E+003
 RTBSE|            1570           1.562                               0.328E+003
 RTBSE|            1571           1.561                               0.328E+003
 RTBSE|            1572           1.567                               0.328E+003
 RTBSE|            1573           1.566                               0.328E+003
 RTBSE|            1574           1.605                               0.328E+003
 RTBSE|            1575           1.628                               0.328E+003
 RTBSE|            1576           1.605                               0.328E+003
 RTBSE|            1577           1.630                               0.328E+003
 RTBSE|            1578           1.583                               0.328E+003
 RTBSE|            1579           1.583                               0.328E+003
 RTBSE|            1580           1.565                               0.328E+003
 RTBSE|            1581           1.563                               0.328E+003
 RTBSE|            1582           1.571                               0.328E+003
 RTBSE|            1583           1.570                               0.328E+003
 RTBSE|            1584           1.579                               0.328E+003
 RTBSE|            1585           1.572                               0.328E+003
 RTBSE|            1586           1.573                               0.328E+003
 RTBSE|            1587           1.577                               0.328E+003
 RTBSE|            1588           1.575                               0.328E+003
 RTBSE|            1589           1.574                               0.328E+003
 RTBSE|            1590           1.567                               0.328E+003
 RTBSE|            1591           1.575                               0.328E+003
 RTBSE|            1592           1.571                               0.328E+003
 RTBSE|            1593           1.646                               0.328E+003
 RTBSE|            1594           1.588                               0.328E+003
 RTBSE|            1595           1.655                               0.328E+003
 RTBSE|            1596           1.659                               0.328E+003
 RTBSE|            1597           1.574                               0.328E+003
 RTBSE|            1598           1.651                               0.328E+003
 RTBSE|            1599           1.568                               0.328E+003
 RTBSE|            1600           1.567                               0.328E+003
 RTBSE|            1601           1.560                               0.328E+003
 RTBSE|            1602           1.566                               0.328E+003
 RTBSE|            1603           1.568                               0.328E+003
 RTBSE|            1604           1.571                               0.328E+003
 RTBSE|            1605           1.565                               0.328E+003
 RTBSE|            1606           1.573                               0.328E+003
 RTBSE|            1607           1.573                               0.328E+003
 RTBSE|            1608           1.571                               0.328E+003
 RTBSE|            1609           1.575                               0.328E+003
 RTBSE|            1610           1.562                               0.328E+003
 RTBSE|            1611           1.603                               0.328E+003
 RTBSE|            1612           1.625                               0.328E+003
 RTBSE|            1613           1.584                               0.328E+003
 RTBSE|            1614           1.626                               0.328E+003
 RTBSE|            1615           1.633                               0.328E+003
 RTBSE|            1616           1.574                               0.328E+003
 RTBSE|            1617           1.603                               0.328E+003
 RTBSE|            1618           1.584                               0.328E+003
 RTBSE|            1619           1.574                               0.328E+003
 RTBSE|            1620           1.569                               0.328E+003
 RTBSE|            1621           1.570                               0.328E+003
 RTBSE|            1622           1.574                               0.328E+003
 RTBSE|            1623           1.572                               0.328E+003
 RTBSE|            1624           1.564                               0.328E+003
 RTBSE|            1625           1.570                               0.328E+003
 RTBSE|            1626           1.570                               0.328E+003
 RTBSE|            1627           1.575                               0.328E+003
 RTBSE|            1628           1.573                               0.328E+003
 RTBSE|            1629           1.568                               0.328E+003
 RTBSE|            1630           1.597                               0.328E+003
 RTBSE|            1631           1.636                               0.328E+003
 RTBSE|            1632           1.592                               0.328E+003
 RTBSE|            1633           1.731                               0.328E+003
 RTBSE|            1634           1.581                               0.328E+003
 RTBSE|            1635           1.648                               0.328E+003
 RTBSE|            1636           1.579                               0.328E+003
 RTBSE|            1637           1.574                               0.328E+003
 RTBSE|            1638           1.565                               0.328E+003
 RTBSE|            1639           1.561                               0.328E+003
 RTBSE|            1640           1.564                               0.328E+003
 RTBSE|            1641           1.565                               0.328E+003
 RTBSE|            1642           1.562                               0.328E+003
 RTBSE|            1643           1.565                               0.328E+003
 RTBSE|            1644           1.560                               0.328E+003
 RTBSE|            1645           1.563                               0.328E+003
 RTBSE|            1646           1.560                               0.328E+003
 RTBSE|            1647           1.564                               0.328E+003
 RTBSE|            1648           1.573                               0.328E+003
 RTBSE|            1649           1.594                               0.328E+003
 RTBSE|            1650           1.610                               0.328E+003
 RTBSE|            1651           1.583                               0.328E+003
 RTBSE|            1652           1.651                               0.328E+003
 RTBSE|            1653           1.589                               0.328E+003
 RTBSE|            1654           1.572                               0.328E+003
 RTBSE|            1655           1.566                               0.328E+003
 RTBSE|            1656           1.575                               0.328E+003
 RTBSE|            1657           1.562                               0.328E+003
 RTBSE|            1658           1.565                               0.328E+003
 RTBSE|            1659           1.575                               0.328E+003
 RTBSE|            1660           1.565                               0.328E+003
 RTBSE|            1661           1.565                               0.328E+003
 RTBSE|            1662           1.569                               0.328E+003
 RTBSE|            1663           1.569                               0.328E+003
 RTBSE|            1664           1.570                               0.328E+003
 RTBSE|            1665           1.565                               0.328E+003
 RTBSE|            1666           1.563                               0.328E+003
 RTBSE|            1667           1.560                               0.328E+003
 RTBSE|            1668           1.586                               0.328E+003
 RTBSE|            1669           1.626                               0.328E+003
 RTBSE|            1670           1.579                               0.328E+003
 RTBSE|            1671           1.739                               0.328E+003
 RTBSE|            1672           1.578                               0.328E+003
 RTBSE|            1673           1.641                               0.328E+003
 RTBSE|            1674           1.569                               0.328E+003
 RTBSE|            1675           1.579                               0.328E+003
 RTBSE|            1676           1.573                               0.328E+003
 RTBSE|            1677           1.577                               0.328E+003
 RTBSE|            1678           1.585                               0.328E+003
 RTBSE|            1679           1.575                               0.328E+003
 RTBSE|            1680           1.576                               0.328E+003
 RTBSE|            1681           1.574                               0.328E+003
 RTBSE|            1682           1.576                               0.328E+003
 RTBSE|            1683           1.574                               0.328E+003
 RTBSE|            1684           1.567                               0.328E+003
 RTBSE|            1685           1.569                               0.328E+003
 RTBSE|            1686           1.561                               0.328E+003
 RTBSE|            1687           1.579                               0.328E+003
 RTBSE|            1688           1.626                               0.328E+003
 RTBSE|            1689           1.581                               0.328E+003
 RTBSE|            1690           1.622                               0.328E+003
 RTBSE|            1691           1.578                               0.328E+003
 RTBSE|            1692           1.594                               0.328E+003
 RTBSE|            1693           1.564                               0.328E+003
 RTBSE|            1694           1.568                               0.328E+003
 RTBSE|            1695           1.565                               0.328E+003
 RTBSE|            1696           1.562                               0.328E+003
 RTBSE|            1697           1.560                               0.328E+003
 RTBSE|            1698           1.561                               0.328E+003
 RTBSE|            1699           1.564                               0.328E+003
 RTBSE|            1700           1.568                               0.328E+003
 RTBSE|            1701           1.574                               0.328E+003
 RTBSE|            1702           1.555                               0.328E+003
 RTBSE|            1703           1.558                               0.328E+003
 RTBSE|            1704           1.557                               0.328E+003
 RTBSE|            1705           1.565                               0.328E+003
 RTBSE|            1706           1.579                               0.328E+003
 RTBSE|            1707           1.623                               0.328E+003
 RTBSE|            1708           1.630                               0.328E+003
 RTBSE|            1709           1.633                               0.328E+003
 RTBSE|            1710           1.568                               0.328E+003
 RTBSE|            1711           1.647                               0.328E+003
 RTBSE|            1712           1.559                               0.328E+003
 RTBSE|            1713           1.556                               0.328E+003
 RTBSE|            1714           1.559                               0.328E+003
 RTBSE|            1715           1.563                               0.328E+003
 RTBSE|            1716           1.558                               0.328E+003
 RTBSE|            1717           1.552                               0.328E+003
 RTBSE|            1718           1.554                               0.328E+003
 RTBSE|            1719           1.555                               0.328E+003
 RTBSE|            1720           1.556                               0.328E+003
 RTBSE|            1721           1.553                               0.328E+003
 RTBSE|            1722           1.552                               0.328E+003
 RTBSE|            1723           1.557                               0.328E+003
 RTBSE|            1724           1.552                               0.328E+003
 RTBSE|            1725           1.561                               0.328E+003
 RTBSE|            1726           1.631                               0.328E+003
 RTBSE|            1727           1.578                               0.328E+003
 RTBSE|            1728           1.622                               0.328E+003
 RTBSE|            1729           1.577                               0.328E+003
 RTBSE|            1730           1.581                               0.328E+003
 RTBSE|            1731           1.557                               0.328E+003
 RTBSE|            1732           1.561                               0.328E+003
 RTBSE|            1733           1.558                               0.328E+003
 RTBSE|            1734           1.559                               0.328E+003
 RTBSE|            1735           1.559                               0.328E+003
 RTBSE|            1736           1.561                               0.328E+003
 RTBSE|            1737           1.562                               0.328E+003
 RTBSE|            1738           1.556                               0.328E+003
 RTBSE|            1739           1.555                               0.328E+003
 RTBSE|            1740           1.559                               0.328E+003
 RTBSE|            1741           1.558                               0.328E+003
 RTBSE|            1742           1.559                               0.328E+003
 RTBSE|            1743           1.556                               0.328E+003
 RTBSE|            1744           1.578                               0.328E+003
 RTBSE|            1745           1.611                               0.328E+003
 RTBSE|            1746           1.588                               0.328E+003
 RTBSE|            1747           1.666                               0.328E+003
 RTBSE|            1748           1.577                               0.328E+003
 RTBSE|            1749           1.632                               0.328E+003
 RTBSE|            1750           1.555                               0.328E+003
 RTBSE|            1751           1.554                               0.328E+003
 RTBSE|            1752           1.561                               0.328E+003
 RTBSE|            1753           1.555                               0.328E+003
 RTBSE|            1754           1.560                               0.328E+003
 RTBSE|            1755           1.561                               0.328E+003
 RTBSE|            1756           1.559                               0.328E+003
 RTBSE|            1757           1.560                               0.328E+003
 RTBSE|            1758           1.573                               0.328E+003
 RTBSE|            1759           1.558                               0.328E+003
 RTBSE|            1760           1.564                               0.328E+003
 RTBSE|            1761           1.563                               0.328E+003
 RTBSE|            1762           1.568                               0.328E+003
 RTBSE|            1763           1.585                               0.328E+003
 RTBSE|            1764           1.621                               0.328E+003
 RTBSE|            1765           1.584                               0.328E+003
 RTBSE|            1766           1.614                               0.328E+003
 RTBSE|            1767           1.569                               0.328E+003
 RTBSE|            1768           1.586                               0.328E+003
 RTBSE|            1769           1.558                               0.328E+003
 RTBSE|            1770           1.556                               0.328E+003
 RTBSE|            1771           1.559                               0.328E+003
 RTBSE|            1772           1.562                               0.328E+003
 RTBSE|            1773           1.553                               0.328E+003
 RTBSE|            1774           1.555                               0.328E+003
 RTBSE|            1775           1.559                               0.328E+003
 RTBSE|            1776           1.557                               0.328E+003
 RTBSE|            1777           1.552                               0.328E+003
 RTBSE|            1778           1.555                               0.328E+003
 RTBSE|            1779           1.551                               0.328E+003
 RTBSE|            1780           1.576                               0.328E+003
 RTBSE|            1781           1.548                               0.328E+003
 RTBSE|            1782           1.597                               0.328E+003
 RTBSE|            1783           1.622                               0.328E+003
 RTBSE|            1784           1.592                               0.328E+003
 RTBSE|            1785           1.672                               0.328E+003
 RTBSE|            1786           1.581                               0.328E+003
 RTBSE|            1787           1.634                               0.328E+003
 RTBSE|            1788           1.555                               0.328E+003
 RTBSE|            1789           1.552                               0.328E+003
 RTBSE|            1790           1.556                               0.328E+003
 RTBSE|            1791           1.558                               0.328E+003
 RTBSE|            1792           1.557                               0.328E+003
 RTBSE|            1793           1.565                               0.328E+003
 RTBSE|            1794           1.564                               0.328E+003
 RTBSE|            1795           1.558                               0.328E+003
 RTBSE|            1796           1.557                               0.328E+003
 RTBSE|            1797           1.557                               0.328E+003
 RTBSE|            1798           1.551                               0.328E+003
 RTBSE|            1799           1.554                               0.328E+003
 RTBSE|            1800           1.552                               0.328E+003
 RTBSE|            1801           1.579                               0.328E+003
 RTBSE|            1802           1.615                               0.328E+003
 RTBSE|            1803           1.581                               0.328E+003
 RTBSE|            1804           1.635                               0.328E+003
 RTBSE|            1805           1.599                               0.328E+003
 RTBSE|            1806           1.585                               0.328E+003
 RTBSE|            1807           1.569                               0.328E+003
 RTBSE|            1808           1.566                               0.328E+003
 RTBSE|            1809           1.561                               0.328E+003
 RTBSE|            1810           1.560                               0.328E+003
 RTBSE|            1811           1.554                               0.328E+003
 RTBSE|            1812           1.567                               0.328E+003
 RTBSE|            1813           1.566                               0.328E+003
 RTBSE|            1814           1.582                               0.328E+003
 RTBSE|            1815           1.586                               0.328E+003
 RTBSE|            1816           1.575                               0.328E+003
 RTBSE|            1817           1.575                               0.328E+003
 RTBSE|            1818           1.575                               0.328E+003
 RTBSE|            1819           1.588                               0.328E+003
 RTBSE|            1820           1.622                               0.328E+003
 RTBSE|            1821           1.622                               0.328E+003
 RTBSE|            1822           1.616                               0.328E+003
 RTBSE|            1823           1.667                               0.328E+003
 RTBSE|            1824           1.578                               0.328E+003
 RTBSE|            1825           1.625                               0.328E+003
 RTBSE|            1826           1.559                               0.328E+003
 RTBSE|            1827           1.563                               0.328E+003
 RTBSE|            1828           1.556                               0.328E+003
 RTBSE|            1829           1.554                               0.328E+003
 RTBSE|            1830           1.573                               0.328E+003
 RTBSE|            1831           1.573                               0.328E+003
 RTBSE|            1832           1.610                               0.328E+003
 RTBSE|            1833           1.563                               0.328E+003
 RTBSE|            1834           1.560                               0.328E+003
 RTBSE|            1835           1.562                               0.328E+003
 RTBSE|            1836           1.555                               0.328E+003
 RTBSE|            1837           1.557                               0.328E+003
 RTBSE|            1838           1.552                               0.328E+003
 RTBSE|            1839           1.633                               0.328E+003
 RTBSE|            1840           1.565                               0.328E+003
 RTBSE|            1841           1.599                               0.328E+003
 RTBSE|            1842           1.598                               0.328E+003
 RTBSE|            1843           1.561                               0.328E+003
 RTBSE|            1844           1.561                               0.328E+003
 RTBSE|            1845           1.561                               0.328E+003
 RTBSE|            1846           1.552                               0.328E+003
 RTBSE|            1847           1.552                               0.328E+003
 RTBSE|            1848           1.558                               0.328E+003
 RTBSE|            1849           1.560                               0.328E+003
 RTBSE|            1850           1.550                               0.328E+003
 RTBSE|            1851           1.557                               0.328E+003
 RTBSE|            1852           1.554                               0.328E+003
 RTBSE|            1853           1.557                               0.328E+003
 RTBSE|            1854           1.568                               0.328E+003
 RTBSE|            1855           1.559                               0.328E+003
 RTBSE|            1856           1.554                               0.328E+003
 RTBSE|            1857           1.561                               0.328E+003
 RTBSE|            1858           1.642                               0.328E+003
 RTBSE|            1859           1.585                               0.328E+003
 RTBSE|            1860           1.597                               0.328E+003
 RTBSE|            1861           1.663                               0.328E+003
 RTBSE|            1862           1.578                               0.328E+003
 RTBSE|            1863           1.620                               0.328E+003
 RTBSE|            1864           1.562                               0.328E+003
 RTBSE|            1865           1.577                               0.328E+003
 RTBSE|            1866           1.565                               0.328E+003
 RTBSE|            1867           1.555                               0.328E+003
 RTBSE|            1868           1.563                               0.328E+003
 RTBSE|            1869           1.551                               0.328E+003
 RTBSE|            1870           1.558                               0.328E+003
 RTBSE|            1871           1.562                               0.328E+003
 RTBSE|            1872           1.554                               0.328E+003
 RTBSE|            1873           1.555                               0.328E+003
 RTBSE|            1874           1.551                               0.328E+003
 RTBSE|            1875           1.557                               0.328E+003
 RTBSE|            1876           1.548                               0.328E+003
 RTBSE|            1877           1.655                               0.328E+003
 RTBSE|            1878           1.565                               0.328E+003
 RTBSE|            1879           1.609                               0.328E+003
 RTBSE|            1880           1.608                               0.328E+003
 RTBSE|            1881           1.567                               0.328E+003
 RTBSE|            1882           1.569                               0.328E+003
 RTBSE|            1883           1.550                               0.328E+003
 RTBSE|            1884           1.561                               0.328E+003
 RTBSE|            1885           1.548                               0.328E+003
 RTBSE|            1886           1.564                               0.328E+003
 RTBSE|            1887           1.549                               0.328E+003
 RTBSE|            1888           1.550                               0.328E+003
 RTBSE|            1889           1.556                               0.328E+003
 RTBSE|            1890           1.552                               0.328E+003
 RTBSE|            1891           1.557                               0.328E+003
 RTBSE|            1892           1.557                               0.328E+003
 RTBSE|            1893           1.557                               0.328E+003
 RTBSE|            1894           1.556                               0.328E+003
 RTBSE|            1895           1.552                               0.328E+003
 RTBSE|            1896           1.643                               0.328E+003
 RTBSE|            1897           1.566                               0.328E+003
 RTBSE|            1898           1.589                               0.328E+003
 RTBSE|            1899           1.675                               0.328E+003
 RTBSE|            1900           1.565                               0.328E+003
 RTBSE|            1901           1.584                               0.328E+003
 RTBSE|            1902           1.598                               0.328E+003
 RTBSE|            1903           1.560                               0.328E+003
 RTBSE|            1904           1.571                               0.328E+003
 RTBSE|            1905           1.549                               0.328E+003
 RTBSE|            1906           1.551                               0.328E+003
 RTBSE|            1907           1.547                               0.328E+003
 RTBSE|            1908           1.572                               0.328E+003
 RTBSE|            1909           1.568                               0.328E+003
 RTBSE|            1910           1.579                               0.328E+003
 RTBSE|            1911           1.572                               0.328E+003
 RTBSE|            1912           1.573                               0.328E+003
 RTBSE|            1913           1.574                               0.328E+003
 RTBSE|            1914           1.574                               0.328E+003
 RTBSE|            1915           1.653                               0.328E+003
 RTBSE|            1916           1.593                               0.328E+003
 RTBSE|            1917           1.617                               0.328E+003
 RTBSE|            1918           1.643                               0.328E+003
 RTBSE|            1919           1.593                               0.328E+003
 RTBSE|            1920           1.592                               0.328E+003
 RTBSE|            1921           1.591                               0.328E+003
 RTBSE|            1922           1.561                               0.328E+003
 RTBSE|            1923           1.576                               0.328E+003
 RTBSE|            1924           1.568                               0.328E+003
 RTBSE|            1925           1.553                               0.328E+003
 RTBSE|            1926           1.566                               0.328E+003
 RTBSE|            1927           1.565                               0.328E+003
 RTBSE|            1928           1.584                               0.328E+003
 RTBSE|            1929           1.578                               0.328E+003
 RTBSE|            1930           1.587                               0.328E+003
 RTBSE|            1931           1.584                               0.328E+003
 RTBSE|            1932           1.584                               0.328E+003
 RTBSE|            1933           1.571                               0.328E+003
 RTBSE|            1934           1.674                               0.328E+003
 RTBSE|            1935           1.588                               0.328E+003
 RTBSE|            1936           1.695                               0.328E+003
 RTBSE|            1937           1.632                               0.328E+003
 RTBSE|            1938           1.576                               0.328E+003
 RTBSE|            1939           1.682                               0.328E+003
 RTBSE|            1940           1.585                               0.328E+003
 RTBSE|            1941           1.582                               0.328E+003
 RTBSE|            1942           1.577                               0.328E+003
 RTBSE|            1943           1.589                               0.328E+003
 RTBSE|            1944           1.581                               0.328E+003
 RTBSE|            1945           1.581                               0.328E+003
 RTBSE|            1946           1.585                               0.328E+003
 RTBSE|            1947           1.577                               0.328E+003
 RTBSE|            1948           1.578                               0.328E+003
 RTBSE|            1949           1.578                               0.328E+003
 RTBSE|            1950           1.575                               0.328E+003
 RTBSE|            1951           1.569                               0.328E+003
 RTBSE|            1952           1.606                               0.328E+003
 RTBSE|            1953           1.634                               0.328E+003
 RTBSE|            1954           1.584                               0.328E+003
 RTBSE|            1955           1.676                               0.328E+003
 RTBSE|            1956           1.596                               0.328E+003
 RTBSE|            1957           1.619                               0.328E+003
 RTBSE|            1958           1.595                               0.328E+003
 RTBSE|            1959           1.568                               0.328E+003
 RTBSE|            1960           1.570                               0.328E+003
 RTBSE|            1961           1.580                               0.328E+003
 RTBSE|            1962           1.579                               0.328E+003
 RTBSE|            1963           1.581                               0.328E+003
 RTBSE|            1964           1.575                               0.328E+003
 RTBSE|            1965           1.576                               0.328E+003
 RTBSE|            1966           1.573                               0.328E+003
 RTBSE|            1967           1.569                               0.328E+003
 RTBSE|            1968           1.569                               0.328E+003
 RTBSE|            1969           1.591                               0.328E+003
 RTBSE|            1970           1.567                               0.328E+003
 RTBSE|            1971           1.588                               0.328E+003
 RTBSE|            1972           1.637                               0.328E+003
 RTBSE|            1973           1.568                               0.328E+003
 RTBSE|            1974           1.702                               0.328E+003
 RTBSE|            1975           1.605                               0.328E+003
 RTBSE|            1976           1.635                               0.328E+003
 RTBSE|            1977           1.652                               0.328E+003
 RTBSE|            1978           1.579                               0.328E+003
 RTBSE|            1979           1.585                               0.328E+003
 RTBSE|            1980           1.600                               0.328E+003
 RTBSE|            1981           1.568                               0.328E+003
 RTBSE|            1982           1.571                               0.328E+003
 RTBSE|            1983           1.570                               0.328E+003
 RTBSE|            1984           1.563                               0.328E+003
 RTBSE|            1985           1.575                               0.328E+003
 RTBSE|            1986           1.566                               0.328E+003
 RTBSE|            1987           1.566                               0.328E+003
 RTBSE|            1988           1.563                               0.328E+003
 RTBSE|            1989           1.564                               0.328E+003
 RTBSE|            1990           1.654                               0.328E+003
 RTBSE|            1991           1.625                               0.328E+003
 RTBSE|            1992           1.615                               0.328E+003
 RTBSE|            1993           1.611                               0.328E+003
 RTBSE|            1994           1.587                               0.328E+003
 RTBSE|            1995           1.607                               0.328E+003
 RTBSE|            1996           1.581                               0.328E+003
 RTBSE|            1997           1.561                               0.328E+003
 RTBSE|            1998           1.562                               0.328E+003
 RTBSE|            1999           1.566                               0.328E+003
 RTBSE|            2000           1.560                               0.328E+003
 RTBSE|            2001           1.566                               0.328E+003
 RTBSE|            2002           1.562                               0.328E+003
 RTBSE|            2003           1.582                               0.328E+003
 RTBSE|            2004           1.569                               0.328E+003
 RTBSE|            2005           1.572                               0.328E+003
 RTBSE|            2006           1.553                               0.328E+003
 RTBSE|            2007           1.571                               0.328E+003
 RTBSE|            2008           1.568                               0.328E+003
 RTBSE|            2009           1.616                               0.328E+003
 RTBSE|            2010           1.576                               0.328E+003
 RTBSE|            2011           1.611                               0.328E+003
 RTBSE|            2012           1.682                               0.328E+003
 RTBSE|            2013           1.561                               0.328E+003
 RTBSE|            2014           1.590                               0.328E+003
 RTBSE|            2015           1.611                               0.328E+003
 RTBSE|            2016           1.577                               0.328E+003
 RTBSE|            2017           1.566                               0.328E+003
 RTBSE|            2018           1.573                               0.328E+003
 RTBSE|            2019           1.564                               0.328E+003
 RTBSE|            2020           1.570                               0.328E+003
 RTBSE|            2021           1.572                               0.328E+003
 RTBSE|            2022           1.567                               0.328E+003
 RTBSE|            2023           1.570                               0.328E+003
 RTBSE|            2024           1.565                               0.328E+003
 RTBSE|            2025           1.571                               0.328E+003
 RTBSE|            2026           1.581                               0.328E+003
 RTBSE|            2027           1.581                               0.328E+003
 RTBSE|            2028           1.659                               0.328E+003
 RTBSE|            2029           1.595                               0.328E+003
 RTBSE|            2030           1.625                               0.328E+003
 RTBSE|            2031           1.634                               0.328E+003
 RTBSE|            2032           1.575                               0.328E+003
 RTBSE|            2033           1.589                               0.328E+003
 RTBSE|            2034           1.573                               0.328E+003
 RTBSE|            2035           1.587                               0.328E+003
 RTBSE|            2036           1.594                               0.328E+003
 RTBSE|            2037           1.589                               0.328E+003
 RTBSE|            2038           1.590                               0.328E+003
 RTBSE|            2039           1.579                               0.328E+003
 RTBSE|            2040           1.567                               0.328E+003
 RTBSE|            2041           1.561                               0.328E+003
 RTBSE|            2042           1.569                               0.328E+003
 RTBSE|            2043           1.561                               0.328E+003
 RTBSE|            2044           1.570                               0.328E+003
 RTBSE|            2045           1.572                               0.328E+003
 RTBSE|            2046           1.586                               0.328E+003
 RTBSE|            2047           1.621                               0.328E+003
 RTBSE|            2048           1.568                               0.328E+003
 RTBSE|            2049           1.620                               0.328E+003
 RTBSE|            2050           1.659                               0.328E+003
 RTBSE|            2051           1.603                               0.328E+003
 RTBSE|            2052           1.620                               0.328E+003
 RTBSE|            2053           1.566                               0.328E+003
 RTBSE|            2054           1.572                               0.328E+003
 RTBSE|            2055           1.569                               0.328E+003
 RTBSE|            2056           1.577                               0.328E+003
 RTBSE|            2057           1.574                               0.328E+003
 RTBSE|            2058           1.571                               0.328E+003
 RTBSE|            2059           1.569                               0.328E+003
 RTBSE|            2060           1.574                               0.328E+003
 RTBSE|            2061           1.565                               0.328E+003
 RTBSE|            2062           1.571                               0.328E+003
 RTBSE|            2063           1.572                               0.328E+003
 RTBSE|            2064           1.577                               0.328E+003
 RTBSE|            2065           1.607                               0.328E+003
 RTBSE|            2066           1.635                               0.328E+003
 RTBSE|            2067           1.584                               0.328E+003
 RTBSE|            2068           1.678                               0.328E+003
 RTBSE|            2069           1.598                               0.328E+003
 RTBSE|            2070           1.613                               0.328E+003
 RTBSE|            2071           1.584                               0.328E+003
 RTBSE|            2072           1.579                               0.328E+003
 RTBSE|            2073           1.573                               0.328E+003
 RTBSE|            2074           1.570                               0.328E+003
 RTBSE|            2075           1.572                               0.328E+003
 RTBSE|            2076           1.567                               0.328E+003
 RTBSE|            2077           1.583                               0.328E+003
 RTBSE|            2078           1.570                               0.328E+003
 RTBSE|            2079           1.570                               0.328E+003
 RTBSE|            2080           1.569                               0.328E+003
 RTBSE|            2081           1.576                               0.328E+003
 RTBSE|            2082           1.575                               0.328E+003
 RTBSE|            2083           1.570                               0.328E+003
 RTBSE|            2084           1.588                               0.328E+003
 RTBSE|            2085           1.657                               0.328E+003
 RTBSE|            2086           1.575                               0.328E+003
 RTBSE|            2087           1.697                               0.328E+003
 RTBSE|            2088           1.582                               0.328E+003
 RTBSE|            2089           1.591                               0.328E+003
 RTBSE|            2090           1.626                               0.328E+003
 RTBSE|            2091           1.563                               0.328E+003
 RTBSE|            2092           1.568                               0.328E+003
 RTBSE|            2093           1.579                               0.328E+003
 RTBSE|            2094           1.573                               0.328E+003
 RTBSE|            2095           1.567                               0.328E+003
 RTBSE|            2096           1.563                               0.328E+003
 RTBSE|            2097           1.574                               0.328E+003
 RTBSE|            2098           1.577                               0.328E+003
 RTBSE|            2099           1.582                               0.328E+003
 RTBSE|            2100           1.586                               0.328E+003
 RTBSE|            2101           1.582                               0.328E+003
 RTBSE|            2102           1.599                               0.328E+003
 RTBSE|            2103           1.657                               0.328E+003
 RTBSE|            2104           1.593                               0.328E+003
 RTBSE|            2105           1.610                               0.328E+003
 RTBSE|            2106           1.629                               0.328E+003
 RTBSE|            2107           1.595                               0.328E+003
 RTBSE|            2108           1.605                               0.328E+003
 RTBSE|            2109           1.582                               0.328E+003
 RTBSE|            2110           1.579                               0.328E+003
 RTBSE|            2111           1.578                               0.328E+003
 RTBSE|            2112           1.576                               0.328E+003
 RTBSE|            2113           1.576                               0.328E+003
 RTBSE|            2114           1.569                               0.328E+003
 RTBSE|            2115           1.575                               0.328E+003
 RTBSE|            2116           1.581                               0.328E+003
 RTBSE|            2117           1.579                               0.328E+003
 RTBSE|            2118           1.584                               0.328E+003
 RTBSE|            2119           1.564                               0.328E+003
 RTBSE|            2120           1.577                               0.328E+003
 RTBSE|            2121           1.563                               0.328E+003
 RTBSE|            2122           1.656                               0.328E+003
 RTBSE|            2123           1.575                               0.328E+003
 RTBSE|            2124           1.615                               0.328E+003
 RTBSE|            2125           1.703                               0.328E+003
 RTBSE|            2126           1.571                               0.328E+003
 RTBSE|            2127           1.596                               0.328E+003
 RTBSE|            2128           1.622                               0.328E+003
 RTBSE|            2129           1.563                               0.328E+003
 RTBSE|            2130           1.560                               0.328E+003
 RTBSE|            2131           1.571                               0.328E+003
 RTBSE|            2132           1.567                               0.328E+003
 RTBSE|            2133           1.559                               0.328E+003
 RTBSE|            2134           1.563                               0.328E+003
 RTBSE|            2135           1.569                               0.328E+003
 RTBSE|            2136           1.579                               0.328E+003
 RTBSE|            2137           1.581                               0.328E+003
 RTBSE|            2138           1.586                               0.328E+003
 RTBSE|            2139           1.588                               0.328E+003
 RTBSE|            2140           1.606                               0.328E+003
 RTBSE|            2141           1.643                               0.328E+003
 RTBSE|            2142           1.600                               0.328E+003
 RTBSE|            2143           1.654                               0.328E+003
 RTBSE|            2144           1.654                               0.328E+003
 RTBSE|            2145           1.601                               0.328E+003
 RTBSE|            2146           1.587                               0.328E+003
 RTBSE|            2147           1.591                               0.328E+003
 RTBSE|            2148           1.603                               0.328E+003
 RTBSE|            2149           1.589                               0.328E+003
 RTBSE|            2150           1.590                               0.328E+003
 RTBSE|            2151           1.588                               0.328E+003
 RTBSE|            2152           1.584                               0.328E+003
 RTBSE|            2153           1.591                               0.328E+003
 RTBSE|            2154           1.590                               0.328E+003
 RTBSE|            2155           1.602                               0.328E+003
 RTBSE|            2156           1.593                               0.328E+003
 RTBSE|            2157           1.585                               0.328E+003
 RTBSE|            2158           1.581                               0.328E+003
 RTBSE|            2159           1.591                               0.328E+003
 RTBSE|            2160           1.662                               0.328E+003
 RTBSE|            2161           1.572                               0.328E+003
 RTBSE|            2162           1.748                               0.328E+003
 RTBSE|            2163           1.591                               0.328E+003
 RTBSE|            2164           1.600                               0.328E+003
 RTBSE|            2165           1.626                               0.328E+003
 RTBSE|            2166           1.564                               0.328E+003
 RTBSE|            2167           1.569                               0.328E+003
 RTBSE|            2168           1.566                               0.328E+003
 RTBSE|            2169           1.566                               0.328E+003
 RTBSE|            2170           1.572                               0.328E+003
 RTBSE|            2171           1.565                               0.328E+003
 RTBSE|            2172           1.573                               0.328E+003
 RTBSE|            2173           1.570                               0.328E+003
 RTBSE|            2174           1.567                               0.328E+003
 RTBSE|            2175           1.569                               0.328E+003
 RTBSE|            2176           1.572                               0.328E+003
 RTBSE|            2177           1.556                               0.328E+003
 RTBSE|            2178           1.600                               0.328E+003
 RTBSE|            2179           1.624                               0.328E+003
 RTBSE|            2180           1.631                               0.328E+003
 RTBSE|            2181           1.632                               0.328E+003
 RTBSE|            2182           1.585                               0.328E+003
 RTBSE|            2183           1.587                               0.328E+003
 RTBSE|            2184           1.566                               0.328E+003
 RTBSE|            2185           1.563                               0.328E+003
 RTBSE|            2186           1.566                               0.328E+003
 RTBSE|            2187           1.571                               0.328E+003
 RTBSE|            2188           1.564                               0.328E+003
 RTBSE|            2189           1.568                               0.328E+003
 RTBSE|            2190           1.587                               0.328E+003
 RTBSE|            2191           1.572                               0.328E+003
 RTBSE|            2192           1.568                               0.328E+003
 RTBSE|            2193           1.564                               0.328E+003
 RTBSE|            2194           1.566                               0.328E+003
 RTBSE|            2195           1.568                               0.328E+003
 RTBSE|            2196           1.564                               0.328E+003
 RTBSE|            2197           1.647                               0.328E+003
 RTBSE|            2198           1.581                               0.328E+003
 RTBSE|            2199           1.622                               0.328E+003
 RTBSE|            2200           1.671                               0.328E+003
 RTBSE|            2201           1.580                               0.328E+003
 RTBSE|            2202           1.595                               0.328E+003
 RTBSE|            2203           1.617                               0.328E+003
 RTBSE|            2204           1.567                               0.328E+003
 RTBSE|            2205           1.574                               0.328E+003
 RTBSE|            2206           1.568                               0.328E+003
 RTBSE|            2207           1.573                               0.328E+003
 RTBSE|            2208           1.566                               0.328E+003
 RTBSE|            2209           1.570                               0.328E+003
 RTBSE|            2210           1.572                               0.328E+003
 RTBSE|            2211           1.582                               0.328E+003
 RTBSE|            2212           1.572                               0.328E+003
 RTBSE|            2213           1.571                               0.328E+003
 RTBSE|            2214           1.568                               0.328E+003
 RTBSE|            2215           1.575                               0.328E+003
 RTBSE|            2216           1.646                               0.328E+003
 RTBSE|            2217           1.595                               0.328E+003
 RTBSE|            2218           1.611                               0.328E+003
 RTBSE|            2219           1.652                               0.328E+003
 RTBSE|            2220           1.574                               0.328E+003
 RTBSE|            2221           1.591                               0.328E+003
 RTBSE|            2222           1.583                               0.328E+003
 RTBSE|            2223           1.573                               0.328E+003
 RTBSE|            2224           1.577                               0.328E+003
 RTBSE|            2225           1.569                               0.328E+003
 RTBSE|            2226           1.561                               0.328E+003
 RTBSE|            2227           1.562                               0.328E+003
 RTBSE|            2228           1.565                               0.328E+003
 RTBSE|            2229           1.564                               0.328E+003
 RTBSE|            2230           1.559                               0.328E+003
 RTBSE|            2231           1.577                               0.328E+003
 RTBSE|            2232           1.571                               0.328E+003
 RTBSE|            2233           1.566                               0.328E+003
 RTBSE|            2234           1.591                               0.328E+003
 RTBSE|            2235           1.617                               0.328E+003
 RTBSE|            2236           1.581                               0.328E+003
 RTBSE|            2237           1.594                               0.328E+003
 RTBSE|            2238           1.713                               0.328E+003
 RTBSE|            2239           1.559                               0.328E+003
 RTBSE|            2240           1.587                               0.328E+003
 RTBSE|            2241           1.614                               0.328E+003
 RTBSE|            2242           1.580                               0.328E+003
 RTBSE|            2243           1.559                               0.328E+003
 RTBSE|            2244           1.577                               0.328E+003
 RTBSE|            2245           1.588                               0.328E+003
 RTBSE|            2246           1.588                               0.328E+003
 RTBSE|            2247           1.577                               0.328E+003
 RTBSE|            2248           1.571                               0.328E+003
 RTBSE|            2249           1.579                               0.328E+003
 RTBSE|            2250           1.573                               0.328E+003
 RTBSE|            2251           1.572                               0.328E+003
 RTBSE|            2252           1.566                               0.328E+003
 RTBSE|            2253           1.594                               0.328E+003
 RTBSE|            2254           1.632                               0.328E+003
 RTBSE|            2255           1.584                               0.328E+003
 RTBSE|            2256           1.661                               0.328E+003
 RTBSE|            2257           1.590                               0.328E+003
 RTBSE|            2258           1.590                               0.328E+003
 RTBSE|            2259           1.572                               0.328E+003
 RTBSE|            2260           1.568                               0.328E+003
 RTBSE|            2261           1.560                               0.328E+003
 RTBSE|            2262           1.573                               0.328E+003
 RTBSE|            2263           1.568                               0.328E+003
 RTBSE|            2264           1.566                               0.328E+003
 RTBSE|            2265           1.595                               0.328E+003
 RTBSE|            2266           1.598                               0.328E+003
 RTBSE|            2267           1.556                               0.328E+003
 RTBSE|            2268           1.565                               0.328E+003
 RTBSE|            2269           1.566                               0.328E+003
 RTBSE|            2270           1.560                               0.328E+003
 RTBSE|            2271           1.566                               0.328E+003
 RTBSE|            2272           1.585                               0.328E+003
 RTBSE|            2273           1.621                               0.328E+003
 RTBSE|            2274           1.599                               0.328E+003
 RTBSE|            2275           1.637                               0.328E+003
 RTBSE|            2276           1.644                               0.328E+003
 RTBSE|            2277           1.598                               0.328E+003
 RTBSE|            2278           1.559                               0.328E+003
 RTBSE|            2279           1.618                               0.328E+003
 RTBSE|            2280           1.562                               0.328E+003
 RTBSE|            2281           1.560                               0.328E+003
 RTBSE|            2282           1.565                               0.328E+003
 RTBSE|            2283           1.567                               0.328E+003
 RTBSE|            2284           1.566                               0.328E+003
 RTBSE|            2285           1.564                               0.328E+003
 RTBSE|            2286           1.564                               0.328E+003
 RTBSE|            2287           1.570                               0.328E+003
 RTBSE|            2288           1.555                               0.328E+003
 RTBSE|            2289           1.557                               0.328E+003
 RTBSE|            2290           1.554                               0.328E+003
 RTBSE|            2291           1.568                               0.328E+003
 RTBSE|            2292           1.571                               0.328E+003
 RTBSE|            2293           1.559                               0.328E+003
 RTBSE|            2294           1.662                               0.328E+003
 RTBSE|            2295           1.583                               0.328E+003
 RTBSE|            2296           1.593                               0.328E+003
 RTBSE|            2297           1.572                               0.328E+003
 RTBSE|            2298           1.562                               0.328E+003
 RTBSE|            2299           1.568                               0.328E+003
 RTBSE|            2300           1.567                               0.328E+003
 RTBSE|            2301           1.560                               0.328E+003
 RTBSE|            2302           1.573                               0.328E+003
 RTBSE|            2303           1.583                               0.328E+003
 RTBSE|            2304           1.564                               0.328E+003
 RTBSE|            2305           1.566                               0.328E+003
 RTBSE|            2306           1.605                               0.328E+003
 RTBSE|            2307           1.573                               0.328E+003
 RTBSE|            2308           1.561                               0.328E+003
 RTBSE|            2309           1.573                               0.328E+003
 RTBSE|            2310           1.607                               0.328E+003
 RTBSE|            2311           1.632                               0.328E+003
 RTBSE|            2312           1.589                               0.328E+003
 RTBSE|            2313           1.657                               0.328E+003
 RTBSE|            2314           1.632                               0.328E+003
 RTBSE|            2315           1.583                               0.328E+003
 RTBSE|            2316           1.570                               0.328E+003
 RTBSE|            2317           1.614                               0.328E+003
 RTBSE|            2318           1.566                               0.328E+003
 RTBSE|            2319           1.574                               0.328E+003
 RTBSE|            2320           1.571                               0.328E+003
 RTBSE|            2321           1.573                               0.328E+003
 RTBSE|            2322           1.577                               0.328E+003
 RTBSE|            2323           1.570                               0.328E+003
 RTBSE|            2324           1.573                               0.328E+003
 RTBSE|            2325           1.574                               0.328E+003
 RTBSE|            2326           1.575                               0.328E+003
 RTBSE|            2327           1.579                               0.328E+003
 RTBSE|            2328           1.577                               0.328E+003
 RTBSE|            2329           1.666                               0.328E+003
 RTBSE|            2330           1.593                               0.328E+003
 RTBSE|            2331           1.611                               0.328E+003
 RTBSE|            2332           1.623                               0.328E+003
 RTBSE|            2333           1.596                               0.328E+003
 RTBSE|            2334           1.604                               0.328E+003
 RTBSE|            2335           1.570                               0.328E+003
 RTBSE|            2336           1.578                               0.328E+003
 RTBSE|            2337           1.574                               0.328E+003
 RTBSE|            2338           1.579                               0.328E+003
 RTBSE|            2339           1.604                               0.328E+003
 RTBSE|            2340           1.586                               0.328E+003
 RTBSE|            2341           1.573                               0.328E+003
 RTBSE|            2342           1.572                               0.328E+003
 RTBSE|            2343           1.570                               0.328E+003
 RTBSE|            2344           1.569                               0.328E+003
 RTBSE|            2345           1.572                               0.328E+003
 RTBSE|            2346           1.570                               0.328E+003
 RTBSE|            2347           1.576                               0.328E+003
 RTBSE|            2348           1.673                               0.328E+003
 RTBSE|            2349           1.580                               0.328E+003
 RTBSE|            2350           1.602                               0.328E+003
 RTBSE|            2351           1.708                               0.328E+003
 RTBSE|            2352           1.571                               0.328E+003
 RTBSE|            2353           1.590                               0.328E+003
 RTBSE|            2354           1.629                               0.328E+003
 RTBSE|            2355           1.566                               0.328E+003
 RTBSE|            2356           1.560                               0.328E+003
 RTBSE|            2357           1.557                               0.328E+003
 RTBSE|            2358           1.571                               0.328E+003
 RTBSE|            2359           1.563                               0.328E+003
 RTBSE|            2360           1.563                               0.328E+003
 RTBSE|            2361           1.564                               0.328E+003
 RTBSE|            2362           1.578                               0.328E+003
 RTBSE|            2363           1.569                               0.328E+003
 RTBSE|            2364           1.569                               0.328E+003
 RTBSE|            2365           1.569                               0.328E+003
 RTBSE|            2366           1.580                               0.328E+003
 RTBSE|            2367           1.625                               0.328E+003
 RTBSE|            2368           1.602                               0.328E+003
 RTBSE|            2369           1.620                               0.328E+003
 RTBSE|            2370           1.639                               0.328E+003
 RTBSE|            2371           1.565                               0.328E+003
 RTBSE|            2372           1.567                               0.328E+003
 RTBSE|            2373           1.573                               0.328E+003
 RTBSE|            2374           1.573                               0.328E+003
 RTBSE|            2375           1.562                               0.328E+003
 RTBSE|            2376           1.562                               0.328E+003
 RTBSE|            2377           1.562                               0.328E+003
 RTBSE|            2378           1.565                               0.328E+003
 RTBSE|            2379           1.565                               0.328E+003
 RTBSE|            2380           1.580                               0.328E+003
 RTBSE|            2381           1.564                               0.328E+003
 RTBSE|            2382           1.576                               0.328E+003
 RTBSE|            2383           1.555                               0.328E+003
 RTBSE|            2384           1.563                               0.328E+003
 RTBSE|            2385           1.566                               0.328E+003
 RTBSE|            2386           1.591                               0.328E+003
 RTBSE|            2387           1.579                               0.328E+003
 RTBSE|            2388           1.602                               0.328E+003
 RTBSE|            2389           1.668                               0.328E+003
 RTBSE|            2390           1.551                               0.328E+003
 RTBSE|            2391           1.597                               0.328E+003
 RTBSE|            2392           1.638                               0.328E+003
 RTBSE|            2393           1.586                               0.328E+003
 RTBSE|            2394           1.561                               0.328E+003
 RTBSE|            2395           1.555                               0.328E+003
 RTBSE|            2396           1.563                               0.328E+003
 RTBSE|            2397           1.562                               0.328E+003
 RTBSE|            2398           1.570                               0.328E+003
 RTBSE|            2399           1.572                               0.328E+003
 RTBSE|            2400           1.570                               0.328E+003
 RTBSE|            2401           1.568                               0.328E+003
 RTBSE|            2402           1.582                               0.328E+003
 RTBSE|            2403           1.574                               0.328E+003
 RTBSE|            2404           1.598                               0.328E+003
 RTBSE|            2405           1.617                               0.328E+003
 RTBSE|            2406           1.588                               0.328E+003
 RTBSE|            2407           1.673                               0.328E+003
 RTBSE|            2408           1.583                               0.328E+003
 RTBSE|            2409           1.611                               0.328E+003
 RTBSE|            2410           1.583                               0.328E+003
 RTBSE|            2411           1.573                               0.328E+003
 RTBSE|            2412           1.564                               0.328E+003
 RTBSE|            2413           1.568                               0.328E+003
 RTBSE|            2414           1.567                               0.328E+003
 RTBSE|            2415           1.563                               0.328E+003
 RTBSE|            2416           1.565                               0.328E+003
 RTBSE|            2417           1.578                               0.328E+003
 RTBSE|            2418           1.569                               0.328E+003
 RTBSE|            2419           1.561                               0.328E+003
 RTBSE|            2420           1.564                               0.328E+003
 RTBSE|            2421           1.560                               0.328E+003
 RTBSE|            2422           1.557                               0.328E+003
 RTBSE|            2423           1.586                               0.328E+003
 RTBSE|            2424           1.614                               0.328E+003
 RTBSE|            2425           1.570                               0.328E+003
 RTBSE|            2426           1.641                               0.328E+003
 RTBSE|            2427           1.630                               0.328E+003
 RTBSE|            2428           1.581                               0.328E+003
 RTBSE|            2429           1.559                               0.328E+003
 RTBSE|            2430           1.615                               0.328E+003
 RTBSE|            2431           1.564                               0.328E+003
 RTBSE|            2432           1.563                               0.328E+003
 RTBSE|            2433           1.566                               0.328E+003
 RTBSE|            2434           1.555                               0.328E+003
 RTBSE|            2435           1.558                               0.328E+003
 RTBSE|            2436           1.570                               0.328E+003
 RTBSE|            2437           1.559                               0.328E+003
 RTBSE|            2438           1.564                               0.328E+003
 RTBSE|            2439           1.560                               0.328E+003
 RTBSE|            2440           1.558                               0.328E+003
 RTBSE|            2441           1.557                               0.328E+003
 RTBSE|            2442           1.588                               0.328E+003
 RTBSE|            2443           1.633                               0.328E+003
 RTBSE|            2444           1.561                               0.328E+003
 RTBSE|            2445           1.700                               0.328E+003
 RTBSE|            2446           1.574                               0.328E+003
 RTBSE|            2447           1.591                               0.328E+003
 RTBSE|            2448           1.561                               0.328E+003
 RTBSE|            2449           1.569                               0.328E+003
 RTBSE|            2450           1.566                               0.328E+003
 RTBSE|            2451           1.561                               0.328E+003
 RTBSE|            2452           1.572                               0.328E+003
 RTBSE|            2453           1.560                               0.328E+003
 RTBSE|            2454           1.567                               0.328E+003
 RTBSE|            2455           1.562                               0.328E+003
 RTBSE|            2456           1.573                               0.328E+003
 RTBSE|            2457           1.562                               0.328E+003
 RTBSE|            2458           1.559                               0.328E+003
 RTBSE|            2459           1.568                               0.328E+003
 RTBSE|            2460           1.569                               0.328E+003
 RTBSE|            2461           1.589                               0.328E+003
 RTBSE|            2462           1.642                               0.328E+003
 RTBSE|            2463           1.570                               0.328E+003
 RTBSE|            2464           1.652                               0.328E+003
 RTBSE|            2465           1.630                               0.328E+003
 RTBSE|            2466           1.583                               0.328E+003
 RTBSE|            2467           1.564                               0.328E+003
 RTBSE|            2468           1.611                               0.328E+003
 RTBSE|            2469           1.567                               0.328E+003
 RTBSE|            2470           1.572                               0.328E+003
 RTBSE|            2471           1.562                               0.328E+003
 RTBSE|            2472           1.560                               0.328E+003
 RTBSE|            2473           1.562                               0.328E+003
 RTBSE|            2474           1.564                               0.328E+003
 RTBSE|            2475           1.569                               0.328E+003
 RTBSE|            2476           1.562                               0.328E+003
 RTBSE|            2477           1.563                               0.328E+003
 RTBSE|            2478           1.560                               0.328E+003
 RTBSE|            2479           1.561                               0.328E+003
 RTBSE|            2480           1.572                               0.328E+003
 RTBSE|            2481           1.634                               0.328E+003
 RTBSE|            2482           1.597                               0.328E+003
 RTBSE|            2483           1.646                               0.328E+003
 RTBSE|            2484           1.586                               0.328E+003
 RTBSE|            2485           1.577                               0.328E+003
 RTBSE|            2486           1.572                               0.328E+003
 RTBSE|            2487           1.570                               0.328E+003
 RTBSE|            2488           1.566                               0.328E+003
 RTBSE|            2489           1.571                               0.328E+003
 RTBSE|            2490           1.569                               0.328E+003
 RTBSE|            2491           1.574                               0.328E+003
 RTBSE|            2492           1.562                               0.328E+003
 RTBSE|            2493           1.568                               0.328E+003
 RTBSE|            2494           1.570                               0.328E+003
 RTBSE|            2495           1.570                               0.328E+003
 RTBSE|            2496           1.568                               0.328E+003
 RTBSE|            2497           1.580                               0.328E+003
 RTBSE|            2498           1.587                               0.328E+003
 RTBSE|            2499           1.662                               0.328E+003
 RTBSE|            2500           1.591                               0.328E+003
 RTBSE|            2501           1.601                               0.328E+003
 RTBSE|            2502           1.633                               0.328E+003
 RTBSE|            2503           1.637                               0.328E+003
 RTBSE|            2504           1.591                               0.328E+003
 RTBSE|            2505           1.582                               0.328E+003
 RTBSE|            2506           1.620                               0.328E+003
 RTBSE|            2507           1.574                               0.328E+003
 RTBSE|            2508           1.575                               0.328E+003
 RTBSE|            2509           1.573                               0.328E+003
 RTBSE|            2510           1.579                               0.328E+003
 RTBSE|            2511           1.577                               0.328E+003
 RTBSE|            2512           1.580                               0.328E+003
 RTBSE|            2513           1.575                               0.328E+003
 RTBSE|            2514           1.577                               0.328E+003
 RTBSE|            2515           1.569                               0.328E+003
 RTBSE|            2516           1.576                               0.328E+003
 RTBSE|            2517           1.571                               0.328E+003
 RTBSE|            2518           1.655                               0.328E+003
 RTBSE|            2519           1.595                               0.328E+003
 RTBSE|            2520           1.609                               0.328E+003
 RTBSE|            2521           1.661                               0.328E+003
 RTBSE|            2522           1.567                               0.328E+003
 RTBSE|            2523           1.583                               0.328E+003
 RTBSE|            2524           1.603                               0.328E+003
 RTBSE|            2525           1.606                               0.328E+003
 RTBSE|            2526           1.611                               0.328E+003
 RTBSE|            2527           1.639                               0.328E+003
 RTBSE|            2528           1.643                               0.328E+003
 RTBSE|            2529           1.625                               0.328E+003
 RTBSE|            2530           1.572                               0.328E+003
 RTBSE|            2531           1.573                               0.328E+003
 RTBSE|            2532           1.574                               0.328E+003
 RTBSE|            2533           1.580                               0.328E+003
 RTBSE|            2534           1.578                               0.328E+003
 RTBSE|            2535           1.581                               0.328E+003
 RTBSE|            2536           1.609                               0.328E+003
 RTBSE|            2537           1.642                               0.328E+003
 RTBSE|            2538           1.587                               0.328E+003
 RTBSE|            2539           1.704                               0.328E+003
 RTBSE|            2540           1.647                               0.328E+003
 RTBSE|            2541           1.590                               0.328E+003
 RTBSE|            2542           1.563                               0.328E+003
 RTBSE|            2543           1.617                               0.328E+003
 RTBSE|            2544           1.577                               0.328E+003
 RTBSE|            2545           1.579                               0.328E+003
 RTBSE|            2546           1.572                               0.328E+003
 RTBSE|            2547           1.582                               0.328E+003
 RTBSE|            2548           1.573                               0.328E+003
 RTBSE|            2549           1.582                               0.328E+003
 RTBSE|            2550           1.580                               0.328E+003
 RTBSE|            2551           1.569                               0.328E+003
 RTBSE|            2552           1.573                               0.328E+003
 RTBSE|            2553           1.579                               0.328E+003
 RTBSE|            2554           1.574                               0.328E+003
 RTBSE|            2555           1.595                               0.328E+003
 RTBSE|            2556           1.634                               0.328E+003
 RTBSE|            2557           1.619                               0.328E+003
 RTBSE|            2558           1.655                               0.328E+003
 RTBSE|            2559           1.594                               0.328E+003
 RTBSE|            2560           1.601                               0.328E+003
 RTBSE|            2561           1.581                               0.328E+003
 RTBSE|            2562           1.585                               0.328E+003
 RTBSE|            2563           1.582                               0.328E+003
 RTBSE|            2564           1.581                               0.328E+003
 RTBSE|            2565           1.571                               0.328E+003
 RTBSE|            2566           1.582                               0.328E+003
 RTBSE|            2567           1.571                               0.328E+003
 RTBSE|            2568           1.585                               0.328E+003
 RTBSE|            2569           1.570                               0.328E+003
 RTBSE|            2570           1.568                               0.328E+003
 RTBSE|            2571           1.571                               0.328E+003
 RTBSE|            2572           1.559                               0.328E+003
 RTBSE|            2573           1.564                               0.328E+003
 RTBSE|            2574           1.632                               0.328E+003
 RTBSE|            2575           1.584                               0.328E+003
 RTBSE|            2576           1.602                               0.328E+003
 RTBSE|            2577           1.646                               0.328E+003
 RTBSE|            2578           1.645                               0.328E+003
 RTBSE|            2579           1.594                               0.328E+003
 RTBSE|            2580           1.570                               0.328E+003
 RTBSE|            2581           1.636                               0.328E+003
 RTBSE|            2582           1.572                               0.328E+003
 RTBSE|            2583           1.574                               0.328E+003
 RTBSE|            2584           1.564                               0.328E+003
 RTBSE|            2585           1.595                               0.328E+003
 RTBSE|            2586           1.570                               0.328E+003
 RTBSE|            2587           1.565                               0.328E+003
 RTBSE|            2588           1.567                               0.328E+003
 RTBSE|            2589           1.571                               0.328E+003
 RTBSE|            2590           1.575                               0.328E+003
 RTBSE|            2591           1.573                               0.328E+003
 RTBSE|            2592           1.570                               0.328E+003
 RTBSE|            2593           1.654                               0.328E+003
 RTBSE|            2594           1.594                               0.328E+003
 RTBSE|            2595           1.611                               0.328E+003
 RTBSE|            2596           1.670                               0.328E+003
 RTBSE|            2597           1.571                               0.328E+003
 RTBSE|            2598           1.593                               0.328E+003
 RTBSE|            2599           1.569                               0.328E+003
 RTBSE|            2600           1.572                               0.328E+003
 RTBSE|            2601           1.571                               0.328E+003
 RTBSE|            2602           1.563                               0.328E+003
 RTBSE|            2603           1.553                               0.328E+003
 RTBSE|            2604           1.570                               0.328E+003
 RTBSE|            2605           1.561                               0.328E+003
 RTBSE|            2606           1.571                               0.328E+003
 RTBSE|            2607           1.566                               0.328E+003
 RTBSE|            2608           1.569                               0.328E+003
 RTBSE|            2609           1.562                               0.328E+003
 RTBSE|            2610           1.568                               0.328E+003
 RTBSE|            2611           1.576                               0.328E+003
 RTBSE|            2612           1.556                               0.328E+003
 RTBSE|            2613           1.567                               0.328E+003
 RTBSE|            2614           1.583                               0.328E+003
 RTBSE|            2615           1.643                               0.328E+003
 RTBSE|            2616           1.608                               0.328E+003
 RTBSE|            2617           1.600                               0.328E+003
 RTBSE|            2618           1.561                               0.328E+003
 RTBSE|            2619           1.615                               0.328E+003
 RTBSE|            2620           1.562                               0.328E+003
 RTBSE|            2621           1.554                               0.328E+003
 RTBSE|            2622           1.555                               0.328E+003
 RTBSE|            2623           1.553                               0.328E+003
 RTBSE|            2624           1.555                               0.328E+003
 RTBSE|            2625           1.559                               0.328E+003
 RTBSE|            2626           1.555                               0.328E+003
 RTBSE|            2627           1.555                               0.328E+003
 RTBSE|            2628           1.566                               0.328E+003
 RTBSE|            2629           1.553                               0.328E+003
 RTBSE|            2630           1.593                               0.328E+003
 RTBSE|            2631           1.614                               0.328E+003
 RTBSE|            2632           1.569                               0.328E+003
 RTBSE|            2633           1.639                               0.328E+003
 RTBSE|            2634           1.638                               0.328E+003
 RTBSE|            2635           1.560                               0.328E+003
 RTBSE|            2636           1.574                               0.328E+003
 RTBSE|            2637           1.556                               0.328E+003
 RTBSE|            2638           1.561                               0.328E+003
 RTBSE|            2639           1.561                               0.328E+003
 RTBSE|            2640           1.565                               0.328E+003
 RTBSE|            2641           1.565                               0.328E+003
 RTBSE|            2642           1.557                               0.328E+003
 RTBSE|            2643           1.563                               0.328E+003
 RTBSE|            2644           1.569                               0.328E+003
 RTBSE|            2645           1.557                               0.328E+003
 RTBSE|            2646           1.569                               0.328E+003
 RTBSE|            2647           1.556                               0.328E+003
 RTBSE|            2648           1.559                               0.328E+003
 RTBSE|            2649           1.578                               0.328E+003
 RTBSE|            2650           1.616                               0.328E+003
 RTBSE|            2651           1.570                               0.328E+003
 RTBSE|            2652           1.596                               0.328E+003
 RTBSE|            2653           1.628                               0.328E+003
 RTBSE|            2654           1.607                               0.328E+003
 RTBSE|            2655           1.577                               0.328E+003
 RTBSE|            2656           1.560                               0.328E+003
 RTBSE|            2657           1.623                               0.328E+003
 RTBSE|            2658           1.562                               0.328E+003
 RTBSE|            2659           1.565                               0.328E+003
 RTBSE|            2660           1.566                               0.328E+003
 RTBSE|            2661           1.561                               0.328E+003
 RTBSE|            2662           1.553                               0.328E+003
 RTBSE|            2663           1.558                               0.328E+003
 RTBSE|            2664           1.560                               0.328E+003
 RTBSE|            2665           1.554                               0.328E+003
 RTBSE|            2666           1.560                               0.328E+003
 RTBSE|            2667           1.562                               0.328E+003
 RTBSE|            2668           1.562                               0.328E+003
 RTBSE|            2669           1.595                               0.328E+003
 RTBSE|            2670           1.583                               0.328E+003
 RTBSE|            2671           1.601                               0.328E+003
 RTBSE|            2672           1.644                               0.328E+003
 RTBSE|            2673           1.560                               0.328E+003
 RTBSE|            2674           1.579                               0.328E+003
 RTBSE|            2675           1.566                               0.328E+003
 RTBSE|            2676           1.548                               0.328E+003
 RTBSE|            2677           1.551                               0.328E+003
 RTBSE|            2678           1.548                               0.328E+003
 RTBSE|            2679           1.559                               0.328E+003
 RTBSE|            2680           1.558                               0.328E+003
 RTBSE|            2681           1.561                               0.328E+003
 RTBSE|            2682           1.558                               0.328E+003
 RTBSE|            2683           1.556                               0.328E+003
 RTBSE|            2684           1.563                               0.328E+003
 RTBSE|            2685           1.563                               0.328E+003
 RTBSE|            2686           1.558                               0.328E+003
 RTBSE|            2687           1.582                               0.328E+003
 RTBSE|            2688           1.629                               0.328E+003
 RTBSE|            2689           1.576                               0.328E+003
 RTBSE|            2690           1.610                               0.328E+003
 RTBSE|            2691           1.644                               0.328E+003
 RTBSE|            2692           1.619                               0.328E+003
 RTBSE|            2693           1.586                               0.328E+003
 RTBSE|            2694           1.569                               0.328E+003
 RTBSE|            2695           1.623                               0.328E+003
 RTBSE|            2696           1.565                               0.328E+003
 RTBSE|            2697           1.575                               0.328E+003
 RTBSE|            2698           1.572                               0.328E+003
 RTBSE|            2699           1.568                               0.328E+003
 RTBSE|            2700           1.564                               0.328E+003
 RTBSE|            2701           1.560                               0.328E+003
 RTBSE|            2702           1.569                               0.328E+003
 RTBSE|            2703           1.568                               0.328E+003
 RTBSE|            2704           1.563                               0.328E+003
 RTBSE|            2705           1.564                               0.328E+003
 RTBSE|            2706           1.590                               0.328E+003
 RTBSE|            2707           1.631                               0.328E+003
 RTBSE|            2708           1.574                               0.328E+003
 RTBSE|            2709           1.665                               0.328E+003
 RTBSE|            2710           1.582                               0.328E+003
 RTBSE|            2711           1.582                               0.328E+003
 RTBSE|            2712           1.564                               0.328E+003
 RTBSE|            2713           1.558                               0.328E+003
 RTBSE|            2714           1.561                               0.328E+003
 RTBSE|            2715           1.558                               0.328E+003
 RTBSE|            2716           1.560                               0.328E+003
 RTBSE|            2717           1.557                               0.328E+003
 RTBSE|            2718           1.557                               0.328E+003
 RTBSE|            2719           1.560                               0.328E+003
 RTBSE|            2720           1.566                               0.328E+003
 RTBSE|            2721           1.560                               0.328E+003
 RTBSE|            2722           1.565                               0.328E+003
 RTBSE|            2723           1.561                               0.328E+003
 RTBSE|            2724           1.553                               0.328E+003
 RTBSE|            2725           1.567                               0.328E+003
 RTBSE|            2726           1.635                               0.328E+003
 RTBSE|            2727           1.573                               0.328E+003
 RTBSE|            2728           1.681                               0.328E+003
 RTBSE|            2729           1.580                               0.328E+003
 RTBSE|            2730           1.643                               0.328E+003
 RTBSE|            2731           1.562                               0.328E+003
 RTBSE|            2732           1.564                               0.328E+003
 RTBSE|            2733           1.612                               0.328E+003
 RTBSE|            2734           1.558                               0.328E+003
 RTBSE|            2735           1.560                               0.328E+003
 RTBSE|            2736           1.572                               0.328E+003
 RTBSE|            2737           1.557                               0.328E+003
 RTBSE|            2738           1.562                               0.328E+003
 RTBSE|            2739           1.566                               0.328E+003
 RTBSE|            2740           1.565                               0.328E+003
 RTBSE|            2741           1.564                               0.328E+003
 RTBSE|            2742           1.569                               0.328E+003
 RTBSE|            2743           1.568                               0.328E+003
 RTBSE|            2744           1.583                               0.328E+003
 RTBSE|            2745           1.639                               0.328E+003
 RTBSE|            2746           1.571                               0.328E+003
 RTBSE|            2747           1.682                               0.328E+003
 RTBSE|            2748           1.608                               0.328E+003
 RTBSE|            2749           1.596                               0.328E+003
 RTBSE|            2750           1.575                               0.328E+003
 RTBSE|            2751           1.578                               0.328E+003
 RTBSE|            2752           1.574                               0.328E+003
 RTBSE|            2753           1.569                               0.328E+003
 RTBSE|            2754           1.570                               0.328E+003
 RTBSE|            2755           1.566                               0.328E+003
 RTBSE|            2756           1.573                               0.328E+003
 RTBSE|            2757           1.569                               0.328E+003
 RTBSE|            2758           1.571                               0.328E+003
 RTBSE|            2759           1.577                               0.328E+003
 RTBSE|            2760           1.569                               0.328E+003
 RTBSE|            2761           1.570                               0.328E+003
 RTBSE|            2762           1.565                               0.328E+003
  GREENX FT_PADE| n_pade, n_fit, window [eV]   484     968     0.0000    19.9960
  GREENX FT_PADE| n_pade, n_fit, window [eV]   484     968     0.0000    19.9960
  GREENX FT_PADE| n_pade, n_fit, window [eV]   484     968     0.0000    19.9960
 STATIC_POL|         spin  element Re [a.u.]              Im [a.u.]
 STATIC_POL|            1    1,  2     -1.4883413494E-001      9.5509200116E-015
 STATIC_POL|            1    2,  2      5.7707474320E+003     -2.1595218207E-012
 STATIC_POL|            1    3,  2      7.2655655833E-002      8.6688286729E-016

 -------------------------------------------------------------------------------
 -                                                                             -
 -                                DBCSR STATISTICS                             -
 -                                                                             -
 -------------------------------------------------------------------------------
 COUNTER                                    TOTAL       BLAS       SMM       ACC
 flops     6 x     6 x    64             10432512       0.0%    100.0%      0.0%     
 flops     6 x     6 x    88             14344704       0.0%    100.0%      0.0%     
 flops     6 x    32 x     6             20127744       0.0%    100.0%      0.0%     
 flops     6 x     6 x    96             31297536       0.0%    100.0%      0.0%     
 flops     6 x    13 x    64             63098880       0.0%    100.0%      0.0%     
 flops    13 x     6 x    64             63578112       0.0%    100.0%      0.0%     
 flops     6 x    13 x    88             86760960       0.0%    100.0%      0.0%     
 flops    13 x     6 x    88             87419904       0.0%    100.0%      0.0%     
 flops    13 x    32 x     6            126676992       0.0%    100.0%      0.0%     
 flops     6 x    32 x    13            126676992       0.0%    100.0%      0.0%     
 flops     6 x    13 x    96            189296640       0.0%    100.0%      0.0%     
 flops    13 x     6 x    96            190734336       0.0%    100.0%      0.0%     
 flops     5 x     5 x     3            335324100       0.0%    100.0%      0.0%     
 flops     3 x     5 x     5            353692350       0.0%    100.0%      0.0%     
 flops    13 x    13 x    64            398374912       0.0%    100.0%      0.0%     
 flops    13 x    13 x    88            547765504       0.0%    100.0%      0.0%     
 flops     3 x     5 x     3            549939510       0.0%    100.0%      0.0%     
 flops     3 x     3 x     5            631481670       0.0%    100.0%      0.0%     
 flops    13 x    32 x    13            787058688       0.0%    100.0%      0.0%     
 flops     5 x     5 x    27           1053094500       0.0%    100.0%      0.0%     
 flops    27 x     5 x     5           1121816250       0.0%    100.0%      0.0%     
 flops    13 x    13 x    96           1195124736       0.0%    100.0%      0.0%     
 flops    27 x     5 x     3           1735383690       0.0%    100.0%      0.0%     
 flops     3 x     5 x    27           1805661720       0.0%    100.0%      0.0%     
 flops     3 x    27 x     5           1993841730       0.0%    100.0%      0.0%     
 flops    27 x     3 x     5           2069776800       0.0%    100.0%      0.0%     
 flops     5 x    30 x     3           5659686900       0.0%    100.0%      0.0%     
 flops    27 x     5 x    27           5740685460       0.0%    100.0%      0.0%     
 flops    30 x     5 x     3           6316722900       0.0%    100.0%      0.0%     
 flops     3 x    30 x     5           6374610900       0.0%    100.0%      0.0%     
 flops    27 x    27 x     5           6535339200       0.0%    100.0%      0.0%     
 flops     3 x     5 x    30           7155134100       0.0%    100.0%      0.0%     
 flops     5 x     5 x    32           7881564800       0.0%    100.0%      0.0%     
 flops    32 x     5 x     5           8244974400       0.0%    100.0%      0.0%     
 flops     3 x    30 x     3          10482214320       0.0%    100.0%      0.0%     
 flops    32 x     5 x     3          12033082560       0.0%    100.0%      0.0%     
 flops     3 x     3 x    30          12376042920       0.0%    100.0%      0.0%     
 flops     3 x     5 x    32          13486579200       0.0%    100.0%      0.0%     
 flops    32 x     3 x     5          13731990720       0.0%    100.0%      0.0%     
 flops     3 x    32 x     5          14667120960       0.0%    100.0%      0.0%     
 flops     5 x    30 x    27          17799555600       0.0%    100.0%      0.0%     
 flops    30 x     5 x    27          19464138000       0.0%    100.0%      0.0%     
 flops    27 x    30 x     5          20213825400       0.0%    100.0%      0.0%     
 flops    27 x     5 x    30          22226707800       0.0%    100.0%      0.0%     
 flops    27 x    30 x     3          33146113680       0.0%    100.0%      0.0%     
 flops     3 x    30 x    27          33510409560       0.0%    100.0%      0.0%     
 flops     3 x    27 x    30          38341356480       0.0%    100.0%      0.0%     
 flops    32 x     5 x    27          39139614720       0.0%    100.0%      0.0%     
 flops    27 x     3 x    30          40207669380       0.0%    100.0%      0.0%     
 flops    27 x     5 x    32          42948999360       0.0%    100.0%      0.0%     
 flops    32 x    27 x     5          43359088320       0.0%    100.0%      0.0%     
 flops    27 x    32 x     5          48072960000       0.0%    100.0%      0.0%     
 flops    27 x    30 x    27         106555888800       0.0%    100.0%      0.0%     
 flops    30 x    30 x     3         106599245400       0.0%    100.0%      0.0%     
 flops     3 x    30 x    30         122377240800       0.0%    100.0%      0.0%     
 flops    27 x    27 x    30         124555598640       0.0%    100.0%      0.0%     
 flops     5 x    30 x    32         133128374400       0.0%    100.0%      0.0%     
 flops    30 x     5 x    32         146334096000       0.0%    100.0%      0.0%     
 flops    32 x    30 x     5         148570992000       0.0%    100.0%      0.0%     
 flops    32 x     5 x    30         164344166400       0.0%    100.0%      0.0%     
 flops     3 x     6 x     6         212947241328       0.0%    100.0%      0.0%     
 flops    32 x    30 x     3         228818874240       0.0%    100.0%      0.0%     
 flops     3 x    30 x    32         251936507520       0.0%    100.0%      0.0%     
 flops     6 x     6 x     3         266633965512       0.0%    100.0%      0.0%     
 flops    32 x     3 x    30         266934389760       0.0%    100.0%      0.0%     
 flops     3 x    32 x    30         283545532800       0.0%    100.0%      0.0%     
 flops    32 x     5 x    32         291636551680       0.0%    100.0%      0.0%     
 flops     3 x     6 x     3         297284783688       0.0%    100.0%      0.0%     
 flops     3 x     3 x     6         298147723776       0.0%    100.0%      0.0%     
 flops    32 x    32 x     5         318941665280       0.0%    100.0%      0.0%     
 flops    30 x    30 x    27         328962367800       0.0%    100.0%      0.0%     
 flops    27 x    30 x    30         379542720600       0.0%    100.0%      0.0%     
 flops    27 x     6 x     6         652679796384       0.0%    100.0%      0.0%     
 flops    32 x    30 x    27         725913239040       0.0%    100.0%      0.0%     
 flops    27 x    30 x    32         803008546560       0.0%    100.0%      0.0%     
 flops     6 x     6 x    27         805613428800       0.0%    100.0%      0.0%     
 flops    32 x    27 x    30         826927107840       0.0%    100.0%      0.0%     
 flops     3 x     6 x    27         911250336312       0.0%    100.0%      0.0%     
 flops     3 x    27 x     6         913796266752       0.0%    100.0%      0.0%     
 flops    27 x    32 x    30         921214425600       0.0%    100.0%      0.0%     
 flops    27 x     6 x     3         955614341844       0.0%    100.0%      0.0%     
 flops    27 x     3 x     6         958321996560       0.0%    100.0%      0.0%     
 flops     3 x    13 x     6        1292003102520       0.0%    100.0%      0.0%     
 flops     6 x    13 x     3        1730495620620       0.0%    100.0%      0.0%     
 flops     3 x     6 x    13        1788677967960       0.0%    100.0%      0.0%     
 flops    13 x     6 x     3        2225502009432       0.0%    100.0%      0.0%     
 flops    30 x    30 x    32        2472174777600       0.0%    100.0%      0.0%     
 flops     3 x    13 x     3        2496782617524       0.0%    100.0%      0.0%     
 flops     3 x     3 x    13        2504363781114       0.0%    100.0%      0.0%     
 flops    32 x    30 x    30        2806142112000       0.0%    100.0%      0.0%     
 flops    27 x     6 x    27        2929143429684       0.0%    100.0%      0.0%     
 flops    27 x    27 x     6        2937168486216       0.0%    100.0%      0.0%     
 flops    27 x    13 x     6        3959957862432       0.0%    100.0%      0.0%     
 flops    27 x     6 x    13        5009318113176       0.0%    100.0%      0.0%     
 flops     6 x    13 x    27        5130181015128       0.0%    100.0%      0.0%     
 flops    32 x    30 x    32        5443178680320       0.0%    100.0%      0.0%     
 flops    32 x     6 x     6        6030767932416       0.0%    100.0%      0.0%     
 flops    32 x    32 x    30        6115814522880       0.0%    100.0%      0.0%     
 flops    13 x     6 x    27        6176242827612       0.0%    100.0%      0.0%     
 flops    32 x     6 x     3        6342601685760       0.0%    100.0%      0.0%     
 flops    32 x     3 x     6        6360883008768       0.0%    100.0%      0.0%     
 flops     3 x    13 x    27        6992995390992       0.0%    100.0%      0.0%     
 flops     3 x    27 x    13        7013672027388       0.0%    100.0%      0.0%     
 flops    27 x    13 x     3        8025981889770       0.0%    100.0%      0.0%     
 flops    27 x     3 x    13        8049679816932       0.0%    100.0%      0.0%     
 flops     6 x     6 x    32        8052939740160       0.0%    100.0%      0.0%     
 flops     3 x     6 x    32        8419957854336       0.0%    100.0%      0.0%     
 flops     3 x    32 x     6        8443541834496       0.0%    100.0%      0.0%     
 flops     3 x    13 x    13       10852182666780       0.0%    100.0%      0.0%     
 flops    13 x    13 x     3       14639481565644       0.0%    100.0%      0.0%     
 flops    32 x     6 x    27       19441117545984       0.0%    100.0%      0.0%     
 flops    32 x    27 x     6       19495628042112       0.0%    100.0%      0.0%     
 flops    27 x    13 x    27       22478935104054       0.0%    100.0%      0.0%     
 flops    27 x    27 x    13       22543767166284       0.0%    100.0%      0.0%     
 flops    27 x     6 x    32       27065247994368       0.0%    100.0%      0.0%     
 flops    27 x    32 x     6       27139679752320       0.0%    100.0%      0.0%     
 flops    27 x    13 x    13       30392257440636       0.0%    100.0%      0.0%     
 flops    32 x    13 x     6       36589988487936       0.0%    100.0%      0.0%     
 flops    13 x    13 x    27       39937165061040       0.0%    100.0%      0.0%     
 flops    32 x     6 x    13       45684834963456       0.0%    100.0%      0.0%     
 flops     6 x    13 x    32       51611761433856       0.0%    100.0%      0.0%     
 flops    32 x    13 x     3       53270496000384       0.0%    100.0%      0.0%     
 flops    32 x     3 x    13       53428335370176       0.0%    100.0%      0.0%     
 flops    13 x     6 x    32       60677903190528       0.0%    100.0%      0.0%     
 flops     3 x    13 x    32       63777956708544       0.0%    100.0%      0.0%     
 flops     3 x    32 x    13       63963084726528       0.0%    100.0%      0.0%     
 flops    32 x    13 x    27      149197011013440       0.0%    100.0%      0.0%     
 flops    32 x    27 x    13      149630735322432       0.0%    100.0%      0.0%     
 flops    32 x     6 x    32      179635904753664       0.0%    100.0%      0.0%     
 flops    32 x    32 x     6      180139655860224       0.0%    100.0%      0.0%     
 flops    27 x    13 x    32      205010225012736       0.0%    100.0%      0.0%     
 flops    27 x    32 x    13      205594807481856       0.0%    100.0%      0.0%     
 flops    32 x    13 x    13      277172543596416       0.0%    100.0%      0.0%     
 flops    13 x    13 x    32      393653185080064       0.0%    100.0%      0.0%     
 flops    32 x    13 x    32     1360687569799168       0.0%    100.0%      0.0%     
 flops    32 x    32 x    13     1364580882382848       0.0%    100.0%      0.0%     
 flops inhomo. stacks                           0       0.0%      0.0%      0.0%
 flops total                         5.270539E+15       0.0%    100.0%      0.0%
 flops max/rank                    365.908496E+12       0.0%    100.0%      0.0%
 matmuls inhomo. stacks                         0       0.0%      0.0%      0.0%
 matmuls total                       503567511944       0.0%    100.0%      0.0%
 number of processed stacks            1420825549       0.0%    100.0%      0.0%
 average stack size                                     0.0     354.4       0.0
 marketing flops                    14.432218E+15
 -------------------------------------------------------------------------------
 # multiplications                         111013
 max memory usage/rank              25.105781E+09
 # max total images/rank                        1
 # max 3D layers                                1
 # MPI messages exchanged                10657248
 MPI messages size (bytes):
  total size                        74.123603E+12
  min size                           0.000000E+00
  max size                          44.104832E+06
  average size                       6.955229E+06
 MPI breakdown and total messages size (bytes):
             size <=      128                3744                        0
       128 < size <=     8192                   0                        0
      8192 < size <=    32768                   0                        0
     32768 < size <=   131072                  57                  4919472
    131072 < size <=  4194304             7450071           19314186256224
   4194304 < size <= 16777216             2138592           15600253997064
  16777216 < size                         1064784           39229224577680
 -------------------------------------------------------------------------------
 -                                                                             -
 -                      DBCSR MESSAGE PASSING PERFORMANCE                      -
 -                                                                             -
 -------------------------------------------------------------------------------
 ROUTINE             CALLS      AVE VOLUME [Bytes]
 MP_Bcast              137                     12.
 MP_Allreduce       444426                     78.
 MP_Alltoall        909757                 471862.
 MP_ISend          2579078                2007275.
 MP_IRecv          2579264                1958099.
 -------------------------------------------------------------------------------

 -------------------------------------------------------------------------------
 -                                                                             -
 -                                GRID STATISTICS                              -
 -                                                                             -
 -------------------------------------------------------------------------------
 LP    KERNEL             BACKEND                              COUNT     PERCENT
 3     collocate ortho    CPU                                  13712      18.68%
 3     integrate ortho    CPU                                  13712      18.68%
 4     collocate ortho    CPU                                  11620      15.83%
 4     integrate ortho    CPU                                  11620      15.83%
 2     collocate ortho    CPU                                  11140      15.18%
 2     integrate ortho    CPU                                  11140      15.18%
 0     collocate general  CPU                                    304       0.41%
 0     integrate general  CPU                                    152       0.21%
 -------------------------------------------------------------------------------

 -------------------------------------------------------------------------------
 -                                                                             -
 -                          OFFLOAD MEMPOOL STATISTICS                         -
 -                                                                             -
 -------------------------------------------------------------------------------
 Memory consumption                Number of allocations  Used [MiB]  Size [MiB]
 Host                                                  6          66    21933216
 -------------------------------------------------------------------------------

 MEMORY| Estimated peak process memory [MiB]                                3358

 -------------------------------------------------------------------------------
 ----                             MULTIGRID INFO                            ----
 -------------------------------------------------------------------------------
 count for grid        1:          97300          cutoff [a.u.]          300.00
 count for grid        2:          90161          cutoff [a.u.]          100.00
 count for grid        3:         107916          cutoff [a.u.]           33.33
 count for grid        4:          67751          cutoff [a.u.]           11.11
 total gridlevel count  :         363128

 -------------------------------------------------------------------------------
 -                                                                             -
 -                         MESSAGE PASSING PERFORMANCE                         -
 -                                                                             -
 -------------------------------------------------------------------------------

 ROUTINE             CALLS      AVE VOLUME [Bytes]
 MP_Group               25
 MP_Bcast              555                 109329.
 MP_Allreduce       111860                  38812.
 MP_Sync                12
 MP_Alltoall            86               68434197.
 MP_SendRecv           120                 397728.
 MP_ISendRecv          120                 397728.
 MP_Wait               544
 MP_comm_split          12
 MP_ISend              386                1540850.
 MP_IRecv              386                1541052.
 -------------------------------------------------------------------------------


 -------------------------------------------------------------------------------
 -                                                                             -
 -                           R E F E R E N C E S                               -
 -                                                                             -
 -------------------------------------------------------------------------------
 
 CP2K version 2026.2 (Development Version), the CP2K developers group (2026).
 CP2K is freely available from https://www.cp2k.org/ .
 
 M. Iannuzzi, J. Wilhelm, F. Stein, A. Bussy, H. Elgabarty, D. Golze, A. Hehn, 
 M. Graml, S. Marek, B. Sertcan Gökmen, C. Schran, H. Forbert, R. Z. 
 Khaliullin, A. Kozhevnikov, M. Taillefumier, R. Meli, V. V. Rybkin, M. Brehm, 
 R. Schade, O. Schütt, J. V. Pototschnig, H. Mirhosseini, A. Knüpfer, D. Marx, 
 M. Krack, J. Hutter, T. D. Kühne.
 J. Phys. Chem. B 130, 1237-1310 (2026).
 The CP2K Program Package Made Simple.
 https://doi.org/10.1021/acs.jpcb.5c05851

 M. Graml, K. Zollner, D. Hernangómez-Pérez, P. E. Faria Junior, J. Wilhelm.
 J. Chem. Theory Comput. 20, 2202-2208 (2024).
 Low-scaling GW algorithm applied to twisted transition-metal dichalcogenide 
 heterobilayers.
 https://doi.org/10.1021/acs.jctc.3c01230

 T. D. Kühne, M. Iannuzzi, M. Del Ben, V. V. Rybkin, P. Seewald, F. Stein, T. 
 Laino, R. Z. Khaliullin, O. Schütt, F. Schiffmann, D. Golze, J. Wilhelm, S. 
 Chulkov, M. H. Bani-Hashemian, V. Weber, U. Borstnik, M. Taillefumier, A. S. 
 Jakobovits, A. Lazzaro, H. Pabst, T. Müller, R. Schade, M. Guidon, S. 
 Andermatt, N. Holmberg, G. K. Schenter, A. Hehn, A. Bussy, F. Belleflamme, G. 
 Tabacchi, A. Glöß, M. Lass, I. Bethune, C. J. Mundy, C. Plessl, M. Watkins, 
 J. VandeVondele, M. Krack, J. Hutter.
 J. Chem. Phys. 152, 194103 (2020).
 CP2K: An electronic structure and molecular dynamics software package - 
 Quickstep: Efficient and accurate electronic structure calculations.
 https://doi.org/10.1063/5.0007045

 O. Schuett, P. Messmer, J. Hutter, J. VandeVondele.
 Electronic Structure Calculations on Graphics Processing Units, 173-190 (2016).
 GPU-Accelerated Sparse Matrix-Matrix Multiplication for Linear Scaling Density 
 Functional Theory.
 https://doi.org/10.1002/9781118670712.ch8

 A. Heinecke, G. Henry, M. Hutchinson, H. Pabst.
 Proceedings of Intl. Supercomputing Conference, 981-991 (2016).
 LIBXSMM: Accelerating Small Matrix Multiplications by Runtime Code Generation.
 https://doi.org/10.1109/SC.2016.83

 U. Borstnik, J. VandeVondele, V. Weber, J. Hutter.
 Parallel Comput. 40, 47-58 (2014).
 Sparse matrix multiplication: The distributed block-compressed sparse row 
 library.
 https://doi.org/10.1016/j.parco.2014.03.012

 A. Marek, V. Blum, R. Johanni, V. Havu, B. Lang, T. Auckenthaler, A. Heinecke, 
 H. Bungartz, H. Lederer.
 J. Phys. Condens. Matter 26, 213201 (2014).
 The ELPA library: scalable parallel eigenvalue solutions for electronic 
 structure theory and computational science.
 https://doi.org/10.1088/0953-8984/26/21/213201

 J. VandeVondele, J. Hutter.
 J. Chem. Phys. 127, 114105 (2007).
 Gaussian basis sets for accurate calculations on molecular systems in gas and 
 condensed phases.
 https://doi.org/10.1063/1.2770708

 J. VandeVondele, M. Krack, F. Mohamed, M. Parrinello, T. Chassaing, J. Hutter.
 Comput. Phys. Commun. 167, 103-128 (2005).
 QUICKSTEP: Fast and accurate density functional calculations using a mixed 
 Gaussian and plane waves approach.
 https://doi.org/10.1016/j.cpc.2004.12.014

 M. Krack.
 Theor. Chem. Acc. 114, 145-152 (2005).
 Pseudopotentials for H to Kr optimized for gradient-corrected 
 exchange-correlation functionals.
 https://doi.org/10.1007/s00214-005-0655-y

 M. Frigo, S. G. Johnson.
 Proc. IEEE 93, 216-231 (2005).
 The design and implementation of FFTW3.
 https://doi.org/10.1109/JPROC.2004.840301

 C. Hartwigsen, S. Goedecker, J. Hutter.
 Phys. Rev. B 58, 3641-3662 (1998).
 Relativistic separable dual-space Gaussian pseudopotentials from H to Rn.
 https://doi.org/10.1103/PhysRevB.58.3641

 G. Lippert, J. Hutter, M. Parrinello.
 Mol. Phys. 92, 477-487 (1997).
 A hybrid Gaussian and plane wave density functional scheme.
 https://doi.org/10.1080/002689797170220

 S. Goedecker, M. Teter, J. Hutter.
 Phys. Rev. B 54, 1703-1710 (1996).
 Separable dual-space Gaussian pseudopotentials.
 https://doi.org/10.1103/PhysRevB.54.1703

 J. P. Perdew, K. Burke, M. Ernzerhof.
 Phys. Rev. Lett. 77, 3865-3868 (1996).
 Generalized gradient approximation made simple.
 https://doi.org/10.1103/PhysRevLett.77.3865

 P. E. Blöchl.
 J. Chem. Phys. 103, 7422-7428 (1995).
 Electrostatic decoupling of periodic images of plane‐wave‐expanded 
 densities and derived atomic point charges.
 https://doi.org/10.1063/1.470314

 R. H. Byrd, P. H. Lu, J. Nocedal, C. Y. Zhu.
 SIAM J. Sci. Comput. 16, 1190-1208 (1995).
 A Limited Memory Algorithm for Bound Constrained Optimization.
 https://doi.org/10.1137/0916069

 C. G. Broyden.
 Math. Comput. 19, 577-593 (1965).
 A class of methods for solving nonlinear simultaneous equations.
 https://doi.org/10.1090/S0025-5718-1965-0198670-6


 -------------------------------------------------------------------------------
 -                                                                             -
 -                                T I M I N G                                  -
 -                                                                             -
 -------------------------------------------------------------------------------
 SUBROUTINE                       CALLS  ASD         SELF TIME        TOTAL TIME
                                MAXIMUM       AVERAGE  MAXIMUM  AVERAGE  MAXIMUM
 CP2K                                 1  1.0    0.244    0.472 5033.423 5033.456
 run_propagation_linearized_bse       1  2.0    0.379    3.243 5031.578 5032.008
 solve_rk4_timestep                2763  3.0    0.248    0.343 4384.673 4385.151
 build_shared_sex_and_hartree     11052  4.0    0.219    0.254 3996.140 4002.238
 compute_sigma_ri_rs_complex      11052  5.0    0.154    0.173 3464.735 3467.971
 compute_sigma_ri_rs              22104  6.0    0.914    0.969 3455.636 3457.777
 dbcsr_multiply_generic          111013  7.8    6.156    6.598 3113.670 3200.032
 dbcsr_contract_ABA               44209  7.0    0.505    0.548 2874.458 2960.808
 multiply_cannon                 111013  8.8   12.112   13.915 2177.150 2310.680
 multiply_cannon_loop            111013  9.8    7.137    7.840 1905.886 2057.633
 multiply_cannon_multrec         444052 10.8 1471.348 1583.186 1474.305 1589.680
 make_m2s                        222026  8.8    2.336    2.458  543.546  645.804
 make_images                     222026  9.8   87.821  109.749  535.805  636.622
 qs_energies                          1  3.0    0.005    0.009  623.395  623.399
 qs_energies_properties               1  4.0    0.003    0.007  617.362  617.372
 post_scf_bandstructure               1  5.0    0.001    0.003  617.358  617.372
 gw                                   1  6.0    0.003    0.008  615.890  615.907
 gw_calc_non_periodic_ri_rs           1  7.0    0.002    0.004  614.249  614.276
 mp_waitall_1                   5328810 12.1  488.876  591.985  488.876  591.985
 ri_rs_grid_assembler                 1  8.0    0.002    0.003  553.916  553.934
 optimize_ri_rs_grid                  1  9.0   13.717   14.315  553.884  553.890
 evaluate_rirs_grid_cluster        2010 10.0  509.321  536.361  509.321  536.361
 parallel_gemm_fm_cosma          177288  6.0  511.210  518.965  511.210  518.965
 make_images_data                222026 10.8    2.253    2.327  340.759  458.191
 hybrid_alltoall_any             266349 11.3   53.725  243.377  329.343  443.837
 compute_hartree_ri_rs_from_dia   11052  5.0    0.152    0.171  409.294  416.286
 hartree_potential_from_diag_ri   22104  6.0   49.379   58.965  403.311  411.568
 update_effective_ham_MO          11052  4.0    0.547    0.760  388.050  392.241
 mp_sum_l                        333217  8.8  199.193  374.910  199.193  374.910
 buffer_matrices_ensure_size     222026  9.8  126.488  308.191  126.488  308.191
 multiply_cannon_metrocomm3      444052 10.8    0.783    0.829  118.189  295.411
 copy_dbcsr_to_fm                 44319  7.0    0.726    0.845  228.321  264.696
 transform_ao_to_mo_covariant_c   22104  5.0    0.194    0.210  259.994  264.363
 transform_mo_to_ao_contravaria   22105  5.0    0.167    0.179  244.938  248.347
 dbcsr_complete_redistribute      66588  8.0   91.841  101.763  223.691  239.383
 mp_sum_dv                        88692  7.0  144.312  236.401  144.312  236.401
 calculate_norms                 887576 10.8  210.289  224.021  210.289  224.021
 multiply_cannon_metrocomm1      444052 10.8    1.040    1.153   91.114  183.046
 hadamard_product_inplace         22104  7.0  148.324  169.146  148.410  169.227
 mp_allgather_i34                111013  9.8  111.694  132.163  111.694  132.163
 dbcsr_finalize                  223256  8.9    1.680    1.832  104.852  120.375
 dbcsr_merge_all                 178738  9.9   38.014   58.392   98.592  113.886
 make_images_sizes               222026 10.8    0.262    0.293   69.940  111.581
 mp_alltoall_i44                 222026 11.8   69.678  111.320   69.678  111.320
 dbcsr_add_wm_from_matrix         22274  9.0   60.490   83.631   72.897   96.128
 dbcsr_desymmetrize_deep          44323  8.0   13.480   15.647   67.705   91.459
 mp_alltoall_i22                 110911  9.0   69.767   90.683   69.767   90.683
 copy_fm_to_dbcsr                 22269  7.0    0.124    0.132   80.766   84.983
 dbcsr_copy                      266411  8.5   64.131   77.115   65.555   78.590
 dbcsr_set                        88891  8.5    0.157    0.178   47.584   56.941
 dbcsr_zero                       88891  9.5   47.427   56.773   47.427   56.773
 mp_alltoall_d11v                332741  9.4   43.534   47.829   43.534   47.829
 dbcsr_data_copy_aa2              89090 11.0   27.372   46.176   27.372   46.176
 make_images_pack                222026 10.8   21.419   40.656   23.111   42.167
 mp_sum_d                         22785  4.0   30.331   40.800   30.331   40.800
 dbcsr_scale_anytype              45233  8.6   28.904   36.169   31.440   38.789
 dbcsr_fill_wm_from_matrix        22274 10.0   11.711   25.264   11.912   25.458
 dbcsr_sort_data                  88875 10.8   17.349   21.256   17.349   21.256
 compute_Sigma_c_and_QP_energie       1  8.0    0.000    0.000   19.145   19.161
 compute_W                            1  8.0    0.001    0.001   18.563   18.575
 compute_Sigma_c                      1  9.0    0.001    0.001   16.744   16.744
 mp_cart_sub                      88652  9.0   15.775   15.836   15.775   15.836
 tree_to_linear_d                 66609 11.0   13.927   15.189   13.927   15.189
 contract_grid_panels_sigma_c        30 10.0    0.003    0.003   14.869   14.885
 get_mat_chi_Gamma_tau                1  8.0    0.000    0.002   14.516   14.519
 mp_cart_create                   44350  9.0   12.673   14.228   12.673   14.228
 cp_cfm_to_fm                     77369  5.6   11.223   13.777   11.223   13.777
 contract_grid_panels                31  9.0    0.002    0.002   13.491   13.642
 setup_rec_index_2d              222026  9.8   13.160   13.590   13.160   13.590
 compute_fm_W_freq                   30  9.0    0.001    0.002   13.112   13.136
 cp_fm_to_cfm                     88421  6.0   10.405   12.565   10.405   12.565
 dbcsr_sort_indices              532897 11.8   11.865   12.360   11.865   12.360
 copy_dbcsr_to_fm_bc              44319  8.0    9.942   11.660   10.265   11.978
 dbcsr_data_release             9389028 10.7    4.184   11.309    4.184   11.309
 dbcsr_special_finalize          222026 10.8    0.418    0.460   10.638   11.110
 quick_finalize                  266349 11.5    1.478    1.609   10.640   11.068
 dbcsr_get_diag                   22104  7.0    8.669    9.490    8.710    9.531
 print_ft                             1  3.0    0.004    0.064    8.435    8.868
 greenx_refine_ft                     3  4.0    8.429    8.866    8.429    8.866
 dbcsr_create_new               1088142  9.6    5.300    5.982    7.443    8.433
 dbcsr_destroy                  1043775  8.8    1.521    1.601    3.083    7.432
 compute_Z_lP                         1  8.0    0.001    0.001    7.151    7.152
 compute_Z_lP_standard                1  9.0    0.006    0.008    7.150    7.152
 mp_alltoall_i11v                244087  9.0    5.268    6.743    5.268    6.743
 multiply_cannon_multrec_finali  111013 11.8    0.206    0.229    2.957    6.495
 dbcsr_make_index_list           222026  9.8    5.113    6.465    5.113    6.465
 cp_cfm_transpose                 22104  5.0    3.164    6.284    3.164    6.284
 dbcsr_mm_multrec_finalize       111013 12.8    1.413    1.551    2.751    6.282
 dbcsr_new_transposed             66560  8.7    0.655    0.693    5.565    6.177
 cp_cfm_scale_and_add             85666  5.0    4.615    5.919    4.615    5.919
 copy_fm_to_dbcsr_bc              22269  8.0    2.832    3.230    5.270    5.838
 cp_fm_write_formatted             5526  3.0    4.534    4.667    4.697    5.361
 mp_isend_dv                    1245638 12.2    3.686    5.109    3.686    5.109
 multiply_cannon_metrocomm2      333039 10.8    0.933    1.008    3.195    5.036
 cp_fm_write_unformatted           5529  3.0    3.904    4.030    4.167    4.925
 dbcsr_data_new                 5768384 10.2    3.849    4.907    3.849    4.907
 cp_fm_trace_a0b0t0               16584  3.0    0.728    1.043    3.181    4.730
 dbcsr_mm_sched_finalize         111013 13.8    1.063    4.673    1.063    4.673
 dbcsr_iterator_start           1066434  9.9    3.070    3.152    4.093    4.316
 dbcsr_make_untransposed_blocks  133275  8.8    2.896    3.041    4.114    4.302
 dbcsr_work_destroy_all          445087 10.9    2.661    2.780    3.930    4.106
 scf_env_do_scf                       1  4.0    0.003    0.006    4.024    4.028
 scf_env_do_scf_inner_loop            3  5.0    0.003    0.007    4.021    4.028
 dbcsr_mm_multrec_init           111013  9.8    0.198    0.227    3.592    3.825
 dbcsr_work_create               445087  9.9    2.334    2.382    3.727    3.820
 dbcsr_iterator_stop            1066434  9.9    2.905    3.481    3.233    3.817
 dbcsr_mm_csr_init               111013 10.8    1.371    1.426    3.394    3.631
 transpose_index_local            66560  9.7    0.363    0.388    3.421    3.583
 compute_d_lp                        10 10.0    1.417    1.669    2.811    3.358
 setup_buffer_matrices           222026  9.8    0.742    0.786    2.032    3.177
 cp_fm_transpose                  16585  3.0    1.372    2.899    1.372    2.899
 build_G_ao                         121  9.5    0.001    0.001    2.772    2.890
 cp_fm_cholesky_invert               31 10.0    2.821    2.827    2.821    2.827
 abc_contract_xsmm               166642 10.2    2.355    2.655    2.355    2.655
 dbcsr_reserve_all_blocks         22272  9.0    0.067    0.075    2.022    2.611
 dbcsr_reserve_blocks             22286 10.0    1.914    2.504    1.960    2.549
 G_occ_vir                          121 10.5    0.212    0.238    2.329    2.438
 compute_QP_energies                  1  9.0    0.000    0.000    2.401    2.406
 qs_ks_build_kohn_sham_matrix         4  8.2    0.007    0.014    2.275    2.286
 multiply_cannon_metrocomm4      333039 10.8    0.687    0.767    1.658    2.206
 mp_isend_iv                    1511442 11.8    1.657    2.179    1.657    2.179
 mp_recv_dv                       66375  4.0    0.132    2.118    0.132    2.118
 fill_hash_tables                111013 11.8    1.844    2.016    1.844    2.016
 qs_ks_update_qs_env                  3  6.0    0.000    0.000    1.955    1.956
 rebuild_ks_matrix                    3  7.0    0.000    0.000    1.950    1.953
 cp_fm_diag_elpa                      7  8.3    0.000    0.000    1.901    1.902
 cp_fm_diag_elpa_base                 7  9.3    1.872    1.893    1.898    1.898
 to_Gamma_and_mo_real                62 10.0    0.003    0.003    1.882    1.882
 cp_fm_cholesky_decompose            34 10.0    1.598    1.744    1.598    1.744
 create_and_init_bs_env_for_gw        1  7.0    0.000    0.000    1.638    1.670
 fft_wrap_pw1pw2                     64 11.1    0.001    0.001    1.630    1.653
 fft_wrap_pw1pw2_300                 40 12.3    0.082    0.087    1.529    1.552
 dbcsr_scale_d                    22135  7.0    0.044    0.047    1.464    1.507
 mp_sync                             12  9.2    0.633    1.445    0.633    1.445
 dbcsr_make_index_exist         1088142 10.6    1.269    1.341    1.269    1.341
 qs_rho_update_rho_low                4  6.0    0.000    0.000    1.310    1.315
 calculate_rho_elec                   4  7.0    0.033    0.033    1.310    1.315
 mask_mo_block_cfm                33156  5.0    0.730    1.310    0.730    1.310
 fft3d_ps                            64 13.1    0.520    0.552    1.279    1.302
 mp_irecv_dv                    1245608 12.2    0.989    1.297    0.989    1.297
 mp_sum_iv                       111073  9.8    1.106    1.263    1.106    1.263
 init_scf_run                         1  4.0    0.000    0.000    1.262    1.262
 build_gram_jacobi_blas              10 10.0    0.339    0.355    1.177    1.223
 dbcsr_iterator_seek            1066434 10.9    1.023    1.209    1.023    1.209
 mp_irecv_iv                    1511535 11.8    0.835    1.201    0.835    1.201
 compute_d_lp_dgemm                4691 11.0    0.939    1.123    0.939    1.123
 qs_vxc_create                        4  9.2    0.002    0.004    1.110    1.116
 xc_vxc_pw_create                     3 10.0    0.033    0.034    1.108    1.116
 compute_Z_lP_standard_dpotrf        10 10.0    1.071    1.106    1.071    1.106
 mp_max_l                            22  1.8    0.621    0.981    0.621    0.981
 merge_index                     178738 10.9    0.918    0.976    0.918    0.976
 qs_scf_new_mos                       3  6.0    0.000    0.000    0.972    0.976
 compute_Sigma_x                      1  8.0    0.000    0.000    0.932    0.945
 eigensolver_symm                     3  7.0    0.000    0.000    0.927    0.928
 hadamard_product                    91 10.7    0.540    0.603    0.775    0.891
 eval_bandstructure_properties        1  6.0    0.000    0.000    0.887    0.888
 build_phi_on_sphere                 10 10.0    0.061    0.065    0.847    0.885
 build_gram_jacobi_blas_dsyrk        10 11.0    0.837    0.868    0.837    0.868
 mp_comm_free                    133061  9.0    0.804    0.866    0.804    0.866
 evaluate_ao_on_points             1313 11.0    0.798    0.834    0.798    0.834
 dbcsr_make_dbcsr_index          533941 11.7    0.799    0.812    0.799    0.812
 xc_pw_derive                        18 12.0    0.000    0.000    0.762    0.780
 mp_send_dv                       11058  4.0    0.295    0.747    0.295    0.747
 scf_env_initial_rho_setup            1  5.0    0.000    0.000    0.733    0.740
 cp_cfm_geeig                         1  7.0    0.000    0.000    0.710    0.713
 sum_up_and_integrate                 4  9.2    0.000    0.000    0.709    0.711
 integrate_v_rspace                   4 10.2    0.000    0.000    0.706    0.708
 dbcsr_distribution_new          400231  8.8    0.670    0.698    0.670    0.698
 grid_collocate_task_list             4  8.0    0.679    0.692    0.679    0.692
 cp_fm_uplo_to_full                  68 10.0    0.440    0.686    0.440    0.686
 compute_fm_chi_Gamma_freq           30  9.0    0.001    0.001    0.643    0.672
 RI_2c_integral_mat                   4  7.2    0.005    0.009    0.664    0.672
 setup_time_and_frequency_minim       1  8.0    0.000    0.003    0.647    0.664
 build_minimax_time_frequency_g       1  9.0    0.002    0.004    0.646    0.664
 fit_l_sq_weights                     3 10.0    0.644    0.659    0.644    0.659
 qs_energies_init_hamiltonians        1  4.0    0.004    0.008    0.649    0.649
 qs_init_subsys                       1  2.0    0.021    0.041    0.625    0.643
 qs_env_setup                         1  3.0    0.003    0.007    0.596    0.641
 qs_env_rebuild_pw_env                2  4.0    0.000    0.000    0.588    0.637
 pw_env_rebuild                       1  5.0    0.004    0.009    0.588    0.637
 qs_env_update_s_mstruct              1  5.0    0.001    0.001    0.601    0.634
 pw_grid_setup                        5  5.2    0.000    0.000    0.575    0.623
 pw_grid_setup_internal               5  6.2    0.007    0.013    0.574    0.623
 mp_alltoall_z22v                    64 15.1    0.586    0.618    0.586    0.618
 density_rs2pw                        4  8.0    0.000    0.000    0.581    0.604
 create_and_init_bs_env               1  6.0    0.002    0.004    0.579    0.589
 dbcsr_switch_data_area          554952 11.1    0.358    0.387    0.548    0.587
 transfer_rs2pw                      18  8.8    0.000    0.000    0.533    0.585
 get_RI_basis                         1  8.0    0.000    0.001    0.563    0.574
 compute_Minv_Gamma                   1  9.0    0.005    0.010    0.559    0.571
 xc_rho_set_and_dset_create           3 11.0    0.021    0.022    0.560    0.570
 cp_cfm_heevd                         1  8.0    0.000    0.000    0.566    0.566
 cp_cfm_heevd_base                    1  9.0    0.566    0.566    0.566    0.566
 extract_grid_panel                 122 10.5    0.367    0.445    0.422    0.517
 mp_waitany                         358 12.2    0.356    0.515    0.356    0.515
 xc_pw_divergence                     3 11.0    0.000    0.000    0.502    0.510
 potential_pw2rs                      4 11.2    0.001    0.001    0.505    0.508
 cp_fm_geeig                          1 10.0    0.000    0.000    0.506    0.506
 extract_masked_blocks              244 10.6    0.375    0.415    0.438    0.501
 mp_bcast_dm                          2 11.5    0.453    0.500    0.453    0.500
 diagonalize_ks_matrix                1  7.0    0.000    0.000    0.498    0.498
 cp_fm_geeig_canon                    1  8.0    0.000    0.000    0.497    0.498
 transfer_rs2pw_300                   6  9.5    0.043    0.046    0.442    0.491
 initialize_sex_selfenergy            1  3.0    0.000    0.000    0.490    0.490
 rt_bse_ri_rs_ensure_W0_grid          1  4.0    0.000    0.000    0.490    0.490
 get_electron_number_MO            2763  3.0    0.019    0.023    0.267    0.478
 build_2c_integrals                   4  8.2    0.150    0.382    0.465    0.473
 release_dbcsr_topology_and_mat   66315  7.0    0.089    0.098    0.435    0.463
 multrec_filtering                88842 13.8    0.275    0.458    0.275    0.458
 calculate_rho_core                   1  6.0    0.017    0.025    0.402    0.436
 x_to_yz                             34 14.5    0.088    0.089    0.409    0.424
 compute_Z_lP_standard_dpotrs        10 10.0    0.354    0.389    0.354    0.389
 yz_to_x                             30 13.6    0.081    0.083    0.346    0.367
 pw_grid_sort                         5  7.2    0.195    0.204    0.304    0.362
 compute_V_MinvVsqrt                  1  9.0    0.001    0.004    0.334    0.347
 compute_V_xc                         1  8.0    0.000    0.000    0.334    0.342
 transfer_pw2rs                      17 12.0    0.000    0.000    0.331    0.331
 dbcsr_make_index_local_row      222026  9.8    0.290    0.321    0.290    0.321
 dbcsr_add_d                        931 10.0    0.001    0.001    0.299    0.319
 dbcsr_add_anytype                  931 11.0    0.196    0.210    0.298    0.318
 setup_square_topology            44334  7.0    0.188    0.205    0.271    0.301
 cp_fm_scale_and_add                935  9.9    0.281    0.291    0.281    0.291
 Fourier_transform_w_to_t            30  9.0    0.001    0.001    0.276    0.286
 qs_ks_ddapc                          4  9.2    0.000    0.000    0.280    0.285
 initialize_hartree_potential         1  3.0    0.000    0.000    0.267    0.267
 rt_bse_ri_rs_ensure_V_grid           1  4.0    0.000    0.000    0.267    0.267
 cp_fm_create                     33566  6.0    0.235    0.257    0.235    0.257
 collect_used_col_blocks             92 10.7    0.006    0.007    0.149    0.254
 dbcsr_get_data_size_used        223061  9.9    0.228    0.250    0.228    0.250
 gw_3c_ctx_create                     2 10.0    0.015    0.238    0.237    0.244
 dbcsr_binary_write                   1 10.0    0.243    0.243    0.243    0.243
 parser_read_line                 20940  4.0    0.003    0.003    0.180    0.219
 parser_read_line_low                26  5.1    0.005    0.056    0.177    0.216
 broadcast_input_information         26  6.1    0.006    0.017    0.172    0.215
 cp_cfm_zscale                    22104  5.0    0.141    0.198    0.141    0.198
 grid_integrate_task_list             4 11.2    0.193    0.198    0.193    0.198
 transfer_pw2rs_300                   5 12.4    0.041    0.043    0.188    0.198
 dbcsr_mm_sched_init             111013 11.8    0.133    0.142    0.179    0.191
 create_qs_kind_set                   1  2.0    0.002    0.004    0.179    0.188
 read_qs_kind                         2  3.0    0.039    0.048    0.177    0.188
 parallel_gemm_cfm                   16  6.5    0.000    0.000    0.185    0.186
 parallel_gemm_cfm_cosma             16  7.5    0.185    0.186    0.185    0.186
 mixing_init                          1  6.0    0.179    0.181    0.181    0.181
 dbcsr_get_local_cols            111013  8.8    0.157    0.181    0.157    0.181
 fill_fm_Sigma_c_Gamma_time           1 10.0    0.000    0.000    0.179    0.179
 cp_ddapc_init                        1  6.0    0.000    0.000    0.170    0.171
 cp_ddapc_create                      1  7.0    0.003    0.007    0.170    0.171
 sort_shells                          5  8.2    0.110    0.170    0.110    0.170
 calculate_first_density_matrix       1  6.0    0.001    0.002    0.161    0.169
 compute_proj_mo_on_kind              1  7.0    0.002    0.002    0.167    0.167
 gspace_mixing                        2  6.0    0.017    0.018    0.161    0.161
 ddapc_eval_AmI                       1  8.0    0.014    0.022    0.149    0.155
 pw_grid_remap                        4  8.0    0.005    0.005    0.137    0.152
 dbcsr_get_local_rows            111013  8.8    0.139    0.149    0.139    0.149
 mp_sum_im3                           5  9.2    0.132    0.148    0.132    0.148
 pw_poisson_solve                     4  9.2    0.000    0.001    0.138    0.139
 xc_functional_eval                   3 12.0    0.000    0.000    0.127    0.133
 pbe_lda_eval                         3 13.0    0.127    0.133    0.127    0.133
 build_A_matrix                       1  9.0    0.127    0.130    0.127    0.130
 cp_ddapc_apply_CD                    4 10.2    0.000    0.001    0.119    0.120
 initialize_moments                   1  3.0    0.005    0.010    0.119    0.119
 pw_scatter_p                        34 13.5    0.115    0.118    0.115    0.118
 fm_write                             1  9.0    0.001    0.008    0.100    0.111
 transfer_pw2rs_100                   4 13.2    0.007    0.007    0.091    0.110
 cp_fm_symm                           3  8.0    0.104    0.105    0.104    0.105
 pw_copy                             60 11.5    0.104    0.105    0.104    0.105
 pw_integral_ab_c1d_c1d_gs            8 10.8    0.093    0.093    0.099    0.103
 cp_cfm_cholesky_decompose            2  8.0    0.097    0.102    0.097    0.102
 pw_derive                           30 12.3    0.098    0.100    0.098    0.100
 scf_post_calculation_gpw             1  4.0    0.000    0.000    0.093    0.096
 mp_bcast_am_src                     26  7.1    0.092    0.094    0.092    0.094
 make_basis_sm                        1  7.0    0.000    0.000    0.093    0.094
 write_available_results              1  5.0    0.000    0.000    0.090    0.093
 write_mo_free_results                1  6.0    0.013    0.017    0.086    0.093
 topology_control                     1  2.0    0.006    0.011    0.072    0.090
 fft_wrap_pw1pw2_100                  8 11.6    0.003    0.004    0.074    0.090
 coordinate_control                   1  3.0    0.012    0.023    0.058    0.089
 ab_contract                     197694  9.2    0.084    0.087    0.084    0.087
 eval_pw_TabLR                        1  2.0    0.048    0.052    0.075    0.084
 cp_fm_triangular_invert              1 11.0    0.080    0.083    0.080    0.083
 dbcsr_get_global_row_map        111013  8.8    0.074    0.082    0.074    0.082
 check_for_restart_files              1  8.0    0.045    0.077    0.045    0.077
 cp_fm_copy_general                   4  8.2    0.000    0.000    0.070    0.077
 mp_isend_dm3                        54 12.3    0.032    0.075    0.032    0.075
 initialize_rtbse_env                 1  3.0    0.066    0.067    0.073    0.073
 mp_bcast_i_src                     109  7.1    0.052    0.073    0.052    0.073
 transfer_rs2pw_100                   4 10.0    0.007    0.008    0.067    0.073
 pw_gather_p                         30 12.6    0.071    0.073    0.071    0.073
 broyden_mixing                       2  7.0    0.065    0.069    0.067    0.071
 build_core_hamiltonian_matrix        1  5.0    0.009    0.019    0.042    0.069
 cp_fm_triangular_multiply            4 10.2    0.060    0.067    0.060    0.067
 coordinate_control_READ_COORDI       1  4.0    0.002    0.005    0.046    0.066
 read_coordinate_xyz                  1  5.0    0.001    0.001    0.043    0.066
 transfer_pw2rs_40                    4 13.2    0.008    0.009    0.045    0.065
 pw_poisson_set                       5  9.4    0.000    0.000    0.064    0.065
 cp_dbcsr_sm_fm_multiply              1  8.0    0.000    0.000    0.065    0.065
 calculate_dm_sparse                  4  7.0    0.000    0.000    0.061    0.064
 cp_dbcsr_plus_fm_fm_t                4  8.0    0.000    0.000    0.061    0.064
 cp_cfm_triangular_multiply           3  8.0    0.062    0.063    0.062    0.063
 build_2c_coulomb_matrix_kp           1 10.0    0.000    0.000    0.056    0.059
 cp_dbcsr_sm_fm_multiply_core         1  9.0    0.000    0.000    0.055    0.058
 lattice_sum                          1 11.0    0.000    0.000    0.055    0.057
 dbcsr_get_global_col_map        111013  8.8    0.045    0.054    0.045    0.054
 dbcsr_mm_hostdrv_init           111013 12.8    0.046    0.054    0.046    0.054
 pw_copy_to_array                    30 12.6    0.045    0.051    0.045    0.051
 check_positive_definite_overla       1  7.0    0.000    0.000    0.051    0.051
 compute_v_transl                     1 12.0    0.045    0.048    0.046    0.048
 transform_ao_to_mo_covariant_f       6  4.0    0.000    0.000    0.044    0.046
 mp_sum_im                            8  7.5    0.046    0.046    0.046    0.046
 cp_fm_finish_copy_general            4  9.2    0.043    0.044    0.045    0.046
 build_grid_cache                     1  9.0    0.012    0.013    0.030    0.044
 mp_bcast_iv_src                     26  7.1    0.022    0.043    0.022    0.043
 build_local_moment_matrix            2  4.0    0.039    0.041    0.039    0.041
 pw_axpy                             53  7.7    0.038    0.041    0.038    0.041
 modify_hartree_pot                   4 11.2    0.038    0.039    0.038    0.039
 build_overlap_matrix_low             1  6.0    0.013    0.023    0.021    0.037
 pw_copy_from_array                  34 13.5    0.033    0.035    0.033    0.035
 get_ddapc                            4 11.2    0.000    0.000    0.031    0.034
 reserve_blocks_within_radius         1  5.0    0.018    0.023    0.020    0.033
 hirshfeld_integration                1  7.0    0.015    0.018    0.033    0.033
 cp_fm_to_fm_matrix                 164 11.0    0.030    0.033    0.030    0.033
 fft_wrap_pw1pw2_40                   8 11.6    0.001    0.001    0.023    0.033
 cp_fm_start_copy_general             4  9.2    0.013    0.014    0.024    0.032
 calculate_hirshfeld_normalizat       1  7.0    0.013    0.015    0.031    0.032
 read_rirs_grid_file                  2 10.0    0.018    0.032    0.018    0.032
 pw_grid_assign                       5  7.2    0.029    0.030    0.030    0.031
 read_mo_set_from_restart             1  7.0    0.003    0.024    0.028    0.030
 cp_fm_gemm                           3  9.0    0.029    0.029    0.029    0.029
 qs_create_task_list                  1  6.0    0.006    0.012    0.028    0.029
 print_matrix_occupation              3  9.0    0.000    0.000    0.015    0.029
 mp_bcast_b_src                      13  8.9    0.008    0.028    0.008    0.028
 read_gw_input_parameters             1  8.0    0.000    0.000    0.024    0.028
 cp_cfm_triangular_invert             1  8.0    0.027    0.027    0.027    0.027
 generate_qs_task_list                1  7.0    0.008    0.009    0.022    0.027
 read_rirs_grid_opt                   1  9.0    0.022    0.026    0.022    0.026
 mp_bcast_dm_src                    344  8.0    0.024    0.026    0.024    0.026
 create_tensors                       1  8.0    0.000    0.000    0.025    0.026
 mp_comm_split_direct                 8 13.6    0.013    0.024    0.013    0.024
 fm_add_on_diag                      60 10.0    0.022    0.023    0.022    0.023
 create_fm_W_MIC_time                 1  9.0    0.000    0.000    0.022    0.023
 pw_zero                             47  5.8    0.022    0.023    0.022    0.023
 mp_sum_dm                            4  7.2    0.014    0.023    0.014    0.023
 apply_delta_pulse_MO                 1  3.0    0.000    0.000    0.023    0.023
 get_parameters_from_qs_env           1  7.0    0.000    0.000    0.011    0.023
 propagate_density                    1  4.0    0.000    0.000    0.023    0.023
 bch_propagate                        1  5.0    0.000    0.000    0.023    0.023
 mp_sum_i                           406  9.9    0.014    0.023    0.014    0.023
 get_ddapc-charges                    4 12.2    0.004    0.007    0.019    0.022
 dbcsr_filter_anytype               165 10.2    0.002    0.004    0.021    0.022
 create_3c_t                          2  9.0    0.005    0.010    0.021    0.022
 cfm_ikp_from_fm_Gamma                3  7.3    0.018    0.021    0.018    0.021
 ewald_ddapc_pot                      1  8.0    0.001    0.001    0.011    0.021
 transfer_rs2pw_40                    4 10.0    0.008    0.009    0.019    0.021
 atomic_basis_at_grid_point           1  8.0    0.003    0.005    0.018    0.019
 rs_gather_matrices                   4 11.2    0.000    0.000    0.007    0.019
 distribute_tasks                     1  8.0    0.001    0.001    0.012    0.018
 allocate_and_fill_fm_ks_fm_s         1  7.0    0.000    0.000    0.016    0.018
 analyt_conti_and_print               1 10.0    0.005    0.008    0.011    0.017
 pw_integral_ab_r3d_r3d_rs           36  3.0    0.017    0.017    0.017    0.017
 rs_scatter_matrices                  4  8.0    0.000    0.000    0.010    0.016
 mulliken_population_analysis         1  7.0    0.000    0.001    0.007    0.016
 mp_sendrecv_dv                     120 11.0    0.014    0.016    0.014    0.016
 create_product_matrix              334 10.6    0.003    0.004    0.014    0.015
 load_balance_distributed             2  9.0    0.000    0.001    0.009    0.015
 connectivity_control                 1  3.0    0.002    0.003    0.008    0.015
 compute_load_list                    4 10.0    0.001    0.001    0.009    0.015
 get_current_loads                   12 10.0    0.000    0.000    0.009    0.015
 dbt_pgrid_create_expert             13 11.9    0.002    0.003    0.009    0.015
 build_b_vector                       4 13.2    0.014    0.014    0.014    0.014
 mp_max_i                           631  1.8    0.010    0.014    0.010    0.014
 mp_alltoall_l                       13 10.9    0.008    0.014    0.008    0.014
 rs_grid_zero                        11 12.6    0.013    0.014    0.013    0.014
 fill_phi_for_atom                   10  9.0    0.000    0.000    0.012    0.013
 store_Z_lP_columns                  10 10.0    0.010    0.013    0.010    0.013
 mp_allgather_i                      10 10.4    0.008    0.012    0.008    0.012
 mp_mem_avail_per_rank_GB             4  9.8    0.001    0.001    0.007    0.012
 mp_maxloc_dv                      1503  1.0    0.012    0.012    0.012    0.012
 check_spline_interp_TabLR            1  3.0    0.001    0.011    0.001    0.011
 mp_comm_split_type                   4 10.8    0.006    0.011    0.006    0.011
 delete_unnecessary_files             1  9.0    0.000    0.000    0.001    0.011
 safe_delete                         60 10.0    0.001    0.010    0.001    0.010
 rs_grid_create_descriptor            4  6.0    0.000    0.000    0.005    0.010
 topology_generate_bond               1  4.0    0.000    0.000    0.005    0.010
 mp_irecv_dm3                        54 12.3    0.003    0.009    0.003    0.009
 write_mo_set_to_restart              3  6.0    0.000    0.002    0.005    0.009
 cp_dbcsr_alloc_block_from_nbl       14  7.1    0.000    0.000    0.006    0.009
 write_mo_dependent_results           1  6.0    0.005    0.009    0.005    0.009
 mp_comm_size                     16743  4.1    0.008    0.009    0.008    0.009
 write_mo_set_low                     1  7.0    0.000    0.000    0.005    0.009
 evaluate_core_matrix_traces          3  7.0    0.000    0.000    0.005    0.009
 calculate_ptrace_kp                  6  8.0    0.000    0.000    0.005    0.009
 dbcsr_dot                            6  9.0    0.001    0.001    0.005    0.009
 mp_max_d                           211  9.9    0.005    0.009    0.005    0.009
 dbt_distribution_new_expert         10 11.5    0.000    0.000    0.008    0.008
 restraint_control                    1  3.0    0.001    0.002    0.005    0.008
 pw_pool_give_back_pw               137 10.4    0.004    0.008    0.004    0.008
 ddapc_eval_gfunc                     1  8.0    0.007    0.008    0.007    0.008
 pw_multiply_with                     4 10.2    0.007    0.008    0.007    0.008
 topology_generate_bond_3             1  5.0    0.001    0.002    0.004    0.008
 qs_scf_print_scf_summary             1  6.0    0.000    0.007    0.000    0.007
 classify_z_lp_atoms                  1 10.0    0.001    0.001    0.005    0.007
 dbt_tas_distribution_new            10 12.5    0.004    0.004    0.007    0.007
 self_consistency_check               3  6.0    0.000    0.000    0.004    0.007
 transfer_pw2rs_20                    4 13.2    0.002    0.002    0.007    0.007
 cp_sm_mix                            3  7.0    0.000    0.001    0.004    0.007
 create_3c_tensor                     2 10.0    0.001    0.001    0.006    0.007
 mp_comm_rank                     16743  4.1    0.006    0.007    0.006    0.007
 cp_fm_set_all                       25  5.4    0.005    0.007    0.005    0.007
 build_core_ppl                       1  6.0    0.005    0.007    0.005    0.007
 dbcsr_frobenius_norm                 1  5.0    0.005    0.006    0.006    0.006
 populate_C_active                    1  3.0    0.000    0.000    0.003    0.006
 cp_fm_to_fm_submat_general           1  4.0    0.003    0.006    0.003    0.006
 lattice_sum_R_to_k                   8 12.0    0.005    0.006    0.005    0.006
 check_gw_input                       1  9.0    0.000    0.000    0.001    0.005
 resolve_memory_per_proc              1 10.0    0.000    0.000    0.001    0.005
 qs_scf_post_charges                  1  5.0    0.003    0.005    0.003    0.005
 transfer_rs2pw_20                    4 10.0    0.002    0.002    0.005    0.005
 build_fist_neighbor_lists            1  6.0    0.001    0.003    0.003    0.005
 pw_grid_distribute                   5  7.2    0.002    0.002    0.005    0.005
 pw_scale                            13 10.8    0.005    0.005    0.005    0.005
 scf_c_read_parameters                1  3.0    0.002    0.005    0.002    0.005
 get_fft_scratch                     65 13.9    0.004    0.005    0.004    0.005
 print_ri_rs_memory_estimate          1  8.0    0.001    0.001    0.005    0.005
 mp_bcast_av                        752  1.0    0.004    0.005    0.004    0.005
 pw_poisson_rebuild                   4 10.2    0.004    0.004    0.004    0.004
 allocate_matrices                    1  9.0    0.001    0.003    0.003    0.004
 fft_wrap_pw1pw2_20                   8 11.6    0.000    0.000    0.004    0.004
 build_core_ppnl                      1  6.0    0.003    0.004    0.003    0.004
 continuation_pade                  106 11.0    0.000    0.000    0.002    0.004
 create_2c_t                          1  9.0    0.000    0.000    0.004    0.004
 mpools_rebuild_fm_pools              1  4.0    0.002    0.004    0.004    0.004
 cp_fm_redistribute_start             7  9.3    0.000    0.000    0.002    0.004
 create_2c_tensor                     3 10.0    0.000    0.000    0.004    0.004
 dbt_create_new                       5 11.0    0.000    0.000    0.003    0.004
 get_sigma_c_newton_pade            106 12.0    0.002    0.004    0.002    0.004
 dbt_tas_create_split                 6 13.2    0.000    0.000    0.003    0.003
 pw_pool_create_pw                  131 10.2    0.001    0.003    0.002    0.003
 dbt_tas_create_split_rows_or_c       6 14.2    0.000    0.000    0.003    0.003
 mp_min_d                             5 10.0    0.002    0.003    0.002    0.003
 grid_free_task_list                  1  2.0    0.002    0.003    0.002    0.003
 scf_c_create                         1  3.0    0.001    0.003    0.001    0.003
 distribute_molecules_2d              2  7.5    0.001    0.003    0.002    0.003
 resolve_grid_panels                  4  9.2    0.001    0.003    0.001    0.003
 allocate_blocks_v_L                  2 12.0    0.002    0.003    0.002    0.003
 grid_create_task_list                1  8.0    0.002    0.003    0.002    0.003
 connectivity_control_check_ele       1  4.0    0.001    0.003    0.001    0.003
 setup_kpoints_DOS_large_cell_G       1  7.0    0.000    0.000    0.002    0.003
 build_qs_neighbor_lists              1  5.0    0.000    0.000    0.002    0.003
 xc_pw_smooth                         3 11.0    0.000    0.000    0.002    0.002
 compute_max_radius                   1  6.0    0.002    0.002    0.002    0.002
 cp_fm_to_fm_columns                  3  7.0    0.001    0.002    0.001    0.002
 build_neighbor_lists                 1  7.0    0.001    0.002    0.001    0.002
 multi_fft                            1  4.0    0.002    0.002    0.002    0.002
 init_interaction_radii               3  7.3    0.001    0.002    0.001    0.002
 dbcsr_copy_into_existing             1  7.0    0.002    0.002    0.002    0.002
 mp_sum_lv                          142  2.2    0.001    0.002    0.001    0.002
 dbcsr_crop_matrix                    9 11.1    0.000    0.000    0.002    0.002
 topology_generate_bond_2             1  5.0    0.001    0.002    0.001    0.002
 init_scf_loop                        1  5.0    0.001    0.002    0.001    0.002
 init_cube_info                       4  6.0    0.002    0.002    0.002    0.002
 cp_cfm_norm                          7  5.7    0.001    0.002    0.001    0.002
 build_kinetic_matrix_low             1  6.0    0.001    0.001    0.001    0.002
 mp_isendrecv_dv                    120 14.2    0.000    0.002    0.000    0.002
 kpoint_init_cell_index_simple        1  8.0    0.000    0.000    0.001    0.002
 kpoint_init_cell_index               1  9.0    0.001    0.002    0.001    0.002
 create_mat_munu                      1 10.0    0.000    0.000    0.001    0.002
 pw_nn_compose_r                     20  3.0    0.001    0.001    0.001    0.001
 mp_bcast_i                           6 15.2    0.001    0.001    0.001    0.001
 get_rpa_minimax_coeff_larger_g       1 10.0    0.001    0.001    0.001    0.001
 dbt_tas_create_new                   5 12.0    0.001    0.001    0.001    0.001
 fft3d_s                              1  2.0    0.000    0.000    0.001    0.001
 allocate_tmp                         1 11.0    0.000    0.000    0.001    0.001
 write_particle_distances             1  3.0    0.001    0.001    0.001    0.001
 init_qs_kind_set                     1  3.0    0.000    0.000    0.001    0.001
 init_qs_kind                         2  4.0    0.000    0.000    0.001    0.001
 dbcsr_copy_submatrix                 9 12.1    0.000    0.001    0.001    0.001
 init_orb_basis_set                   4  5.0    0.000    0.000    0.001    0.001
 scf_c_write_parameters               1  3.0    0.000    0.001    0.000    0.001
 allocate_blocks_v_kp                 1 12.0    0.001    0.001    0.001    0.001
 init_cphi_and_sphi                   4  6.0    0.001    0.001    0.001    0.001
 mp_sum_b                           115 11.4    0.001    0.001    0.001    0.001
 external_control                     3  6.0    0.000    0.001    0.001    0.001
 build_neighbor_lists_sab_orb         1  6.0    0.001    0.001    0.001    0.001
 topology_connectivity_pack           1  3.0    0.000    0.000    0.001    0.001
 scf_env_release                      1  2.0    0.001    0.001    0.001    0.001
 mp_bcast_dv_src                      2  8.0    0.001    0.001    0.001    0.001
 mp_bcast_av_src                      1  7.0    0.001    0.001    0.001    0.001
 time_to_freq                         1 10.0    0.001    0.001    0.001    0.001
 read_smeagol_control                 1  3.0    0.001    0.001    0.001    0.001
 distribution_3d_create               1 10.0    0.000    0.000    0.001    0.001
 mp_max_iv                            1 10.0    0.001    0.001    0.001    0.001
 mp_allgather_l                      13 10.9    0.001    0.001    0.001    0.001
 atom2d_build                         8  9.0    0.001    0.001    0.001    0.001
 qs_scf_ensure_work_matrices          1  4.0    0.000    0.000    0.001    0.001
 compute_xkp                          3  9.3    0.000    0.001    0.000    0.001
 dbcsr_index_compact                152 11.4    0.001    0.001    0.001    0.001
 mp_bcast_iv                        153  2.9    0.001    0.001    0.001    0.001
 topology_connectivity_pack_5         1  4.0    0.000    0.001    0.000    0.001
 set_blocks_to_matrix_v_kp            1 12.0    0.001    0.001    0.001    0.001
 wfi_create                           1  3.0    0.000    0.001    0.000    0.001
 build_3c_neighbor_lists              1 10.0    0.000    0.000    0.001    0.001
 dbcsr_make_images_dense              8 11.0    0.000    0.000    0.001    0.001
 distribution_2d_create               2 11.0    0.001    0.001    0.001    0.001
 create_local_tasks                   1  9.0    0.000    0.000    0.001    0.001
 dbcsr_make_dense_low                 8 12.0    0.000    0.000    0.001    0.001
 scale_rows_by_diag                  20 10.0    0.001    0.001    0.001    0.001
 build_neighbor_lists_RPA_2c_nl       4  8.2    0.001    0.001    0.001    0.001
 read_topology_section                1  3.0    0.000    0.001    0.000    0.001
 mp_rank_compare                     64 14.1    0.001    0.001    0.001    0.001
 make_dense_data                      8 13.0    0.000    0.000    0.001    0.001
 build_neighbor_lists_sap_ppnl        1  6.0    0.001    0.001    0.001    0.001
 build_neighbor_lists_GW_3c_nl_       1 11.0    0.000    0.001    0.000    0.001
 write_qs_particle_coordinates        1  3.0    0.000    0.000    0.000    0.000
 get_n_ao_in_sphere                 304 10.0    0.000    0.000    0.000    0.000
 print_Z_lP_progress                 11 10.0    0.000    0.000    0.000    0.000
 mp_comm_dup                         10 11.9    0.000    0.000    0.000    0.000
 mp_alltoall_l11v                     1 10.0    0.000    0.000    0.000    0.000
 build_neighbor_lists_sac_ppl         1  6.0    0.000    0.000    0.000    0.000
 bs_env_release                       1  2.0    0.000    0.000    0.000    0.000
 cp_cfm_to_cfm_columns                1  8.0    0.000    0.000    0.000    0.000
 mp_max_r                             1  2.0    0.000    0.000    0.000    0.000
 mixing_allocate                      1  4.0    0.000    0.000    0.000    0.000
 pw_create_r3d                       73 10.8    0.000    0.000    0.000    0.000
 de_init_bs_env                       1  8.0    0.000    0.000    0.000    0.000
 rs_grid_create                       6  6.7    0.000    0.000    0.000    0.000
 write_orbpop                         1  8.0    0.000    0.000    0.000    0.000
 write_qs_kind_set                    1  3.0    0.000    0.000    0.000    0.000
 offload_create_buffer                8  7.8    0.000    0.000    0.000    0.000
 pw_create_c1d                       73 11.6    0.000    0.000    0.000    0.000
 initialize_singleparticle_hami       1  3.0    0.000    0.000    0.000    0.000
 build_neighbor_lists_GW_3c_nl_       1 11.0    0.000    0.000    0.000    0.000
 optimize_load_list                   2 10.0    0.000    0.000    0.000    0.000
 load_balance_replicated              1  9.0    0.000    0.000    0.000    0.000
 qs_env_rebuild_rho                   1  6.0    0.000    0.000    0.000    0.000
 write_band_edges                     3  7.0    0.000    0.000    0.000    0.000
 qs_rho_rebuild                       1  7.0    0.000    0.000    0.000    0.000
 qs_scf_ensure_mos                    1  4.0    0.000    0.000    0.000    0.000
 dbt_destroy                          5  3.0    0.000    0.000    0.000    0.000
 build_neighbor_lists_sab_all         1  6.0    0.000    0.000    0.000    0.000
 topology_constraint_pack             1  3.0    0.000    0.000    0.000    0.000
 topology_generate_bond_4             1  5.0    0.000    0.000    0.000    0.000
 topology_constraint_pack_5           1  4.0    0.000    0.000    0.000    0.000
 build_neighbor_lists_sab_orb_s       1 11.0    0.000    0.000    0.000    0.000
 deallocate_blocks_v_L                2 12.0    0.000    0.000    0.000    0.000
 set_parallelization_parameters       1  9.0    0.000    0.000    0.000    0.000
 mp_cart_get                        107 13.8    0.000    0.000    0.000    0.000
 build_neighbor_lists_sab_core        1  6.0    0.000    0.000    0.000    0.000
 wfs_update                           1  4.0    0.000    0.000    0.000    0.000
 mp_sum_partial_im                    2 11.0    0.000    0.000    0.000    0.000
 calculate_ecore_overlap              1  5.0    0.000    0.000    0.000    0.000
 distribute_molecules_1d              2  7.0    0.000    0.000    0.000    0.000
 qs_scf_write_mos                     4  6.2    0.000    0.000    0.000    0.000
 write_dft_control                    1  3.0    0.000    0.000    0.000    0.000
 dbt_distribution_destroy            10 11.5    0.000    0.000    0.000    0.000
 mp_bcast_i3                          2 11.0    0.000    0.000    0.000    0.000
 dbcsr_index_prune_deleted           29 12.3    0.000    0.000    0.000    0.000
 get_all_VBM_CBM_bandgaps             1 10.0    0.000    0.000    0.000    0.000
 deallocate_blocks_v_kp               1 12.0    0.000    0.000    0.000    0.000
 initialize_density_matrix            1  3.0    0.000    0.000    0.000    0.000
 check_scf_gw_level_ordering          1 11.0    0.000    0.000    0.000    0.000
 mp_sum_root_iv                       2 11.0    0.000    0.000    0.000    0.000
 distribution_3d_destroy              1  9.0    0.000    0.000    0.000    0.000
 mp_mem_used_per_rank_GB              2  9.5    0.000    0.000    0.000    0.000
 topology_coordinate_pack             1  3.0    0.000    0.000    0.000    0.000
 mp_min_lv                            4  8.0    0.000    0.000    0.000    0.000
 correct_obvious_fitting_fails        1 11.0    0.000    0.000    0.000    0.000
 topology_generate_bond_1             1  5.0    0.000    0.000    0.000    0.000
 print_header_and_input_paramet       1  8.0    0.000    0.000    0.000    0.000
 initialize_maximum_timestep          1  3.0    0.000    0.000    0.000    0.000
 xc_libxc_check_functional            2  4.0    0.000    0.000    0.000    0.000
 topology_set_atm_mass                1  4.0    0.000    0.000    0.000    0.000
 cp_fm_scale                          2  6.5    0.000    0.000    0.000    0.000
 mp_max_lv                            4  8.0    0.000    0.000    0.000    0.000
 check_generate_mol                   1  6.0    0.000    0.000    0.000    0.000
 topology_generate_molecule           1  4.0    0.000    0.000    0.000    0.000
 qs_scf_initial_info                  1  5.0    0.000    0.000    0.000    0.000
 pw_grid_allocate                     5  7.2    0.000    0.000    0.000    0.000
 qs_scf_loop_print                    3  6.0    0.000    0.000    0.000    0.000
 set_RI_basis_function_indices        1  9.0    0.000    0.000    0.000    0.000
 set_mo_occupation_2                  4  7.0    0.000    0.000    0.000    0.000
 dbcsr_make_dists_dense               4 10.0    0.000    0.000    0.000    0.000
 scf_env_cleanup                      1  4.0    0.000    0.000    0.000    0.000
 mp_cart_coords                      64  9.0    0.000    0.000    0.000    0.000
 cp_result_value_p_reallocate         4  7.8    0.000    0.000    0.000    0.000
 write_qs_control                     1  3.0    0.000    0.000    0.000    0.000
 get_basis_offsets                    1  9.0    0.000    0.000    0.000    0.000
 mp_sum_lm3                           1  2.0    0.000    0.000    0.000    0.000
 reallocate_ft_traces                 1  4.0    0.000    0.000    0.000    0.000
 fix_atom_control                     1  3.0    0.000    0.000    0.000    0.000
 make_basic_distribution              2  8.5    0.000    0.000    0.000    0.000
 topology_connectivity_pack_4         1  4.0    0.000    0.000    0.000    0.000
 qs_efield_local_operator             4  9.2    0.000    0.000    0.000    0.000
 read_qs_section                      1  3.0    0.000    0.000    0.000    0.000
 topology_connectivity_pack_2         1  4.0    0.000    0.000    0.000    0.000
 write_molecule_kind_set              1  3.0    0.000    0.000    0.000    0.000
 print_gw_rirs_input                  1  9.0    0.000    0.000    0.000    0.000
 topology_coordinate_pack_11          1  4.0    0.000    0.000    0.000    0.000
 topology_generate_onfo               1  4.0    0.000    0.000    0.000    0.000
 topology_connectivity_pack_14        1  4.0    0.000    0.000    0.000    0.000
 check_cp2k_input                     1  2.0    0.000    0.000    0.000    0.000
 dump_info_core_hamiltonian           1  6.0    0.000    0.000    0.000    0.000
 read_bandstructure_input_param       1  7.0    0.000    0.000    0.000    0.000
 setup_AO_and_RI_basis_set            1  8.0    0.000    0.000    0.000    0.000
 determine_active_mo_window           1  3.0    0.000    0.000    0.000    0.000
 create_local_fixd_list               1  4.0    0.000    0.000    0.000    0.000
 topology_connectivity_pack_9         1  4.0    0.000    0.000    0.000    0.000
 topology_connectivity_pack_6         1  4.0    0.000    0.000    0.000    0.000
 create_destination_list              2 10.0    0.000    0.000    0.000    0.000
 mp_bcast_im                          8 10.2    0.000    0.000    0.000    0.000
 dbcsr_verify_matrix                  4  9.0    0.000    0.000    0.000    0.000
 set_mo_occupation_1                  5  7.6    0.000    0.000    0.000    0.000
 topology_coordinate_pack_1           1  4.0    0.000    0.000    0.000    0.000
 read_tddfpt2_control                 1  3.0    0.000    0.000    0.000    0.000
 mp_dims_create                       3 11.0    0.000    0.000    0.000    0.000
 topology_connectivity_pack_10        1  4.0    0.000    0.000    0.000    0.000
 print_atomic_charges                 4 13.2    0.000    0.000    0.000    0.000
 mp_min_i                             2  6.0    0.000    0.000    0.000    0.000
 topology_connectivity_pack_13        1  4.0    0.000    0.000    0.000    0.000
 precompute_ri_rs_radii               1  8.0    0.000    0.000    0.000    0.000
 topology_connectivity_pack_11        1  4.0    0.000    0.000    0.000    0.000
 topology_molecules_check             1  4.0    0.000    0.000    0.000    0.000
 lpt_assign_atoms                     1 10.0    0.000    0.000    0.000    0.000
 mp_sum_r                             1  2.0    0.000    0.000    0.000    0.000
 spatial_atom_order                   1  9.0    0.000    0.000    0.000    0.000
 topology_connectivity_pack_12        1  4.0    0.000    0.000    0.000    0.000
 sort_neighbor_lists                  1  7.0    0.000    0.000    0.000    0.000
 mp_min_rv                            1  2.0    0.000    0.000    0.000    0.000
 wfi_extrapolate                      1  6.0    0.000    0.000    0.000    0.000
 topology_generate_bond_6             1  5.0    0.000    0.000    0.000    0.000
 cp_fm_cleanup_copy_general           4  9.2    0.000    0.000    0.000    0.000
 offload_free_buffer                  8  3.5    0.000    0.000    0.000    0.000
 print_sphere_cutoff_table            1 10.0    0.000    0.000    0.000    0.000
 deallocate_tmp                       1 11.0    0.000    0.000    0.000    0.000
 check_diag                           7  8.3    0.000    0.000    0.000    0.000
 print_header                         1  7.0    0.000    0.000    0.000    0.000
 mp_sum_rv                            1  2.0    0.000    0.000    0.000    0.000
 qs_scf_post_ps_implicit              1  7.0    0.000    0.000    0.000    0.000
 init_evGW0                           1  9.0    0.000    0.000    0.000    0.000
 get_factor_and_xyz_min_max           1 12.0    0.000    0.000    0.000    0.000
 resp_fit                             1  6.0    0.000    0.000    0.000    0.000
 mp_max_rv                            1  2.0    0.000    0.000    0.000    0.000
 check_for_derivatives                3 11.0    0.000    0.000    0.000    0.000
 qs_scf_post_transport                1  7.0    0.000    0.000    0.000    0.000
 scf_env_create                       1  4.0    0.000    0.000    0.000    0.000
 get_exp_minimax_coeff_gw             1 10.0    0.000    0.000    0.000    0.000
 setup_kpoints_chi_eps_W              1  9.0    0.000    0.000    0.000    0.000
 ec_env_release                       1  2.0    0.000    0.000    0.000    0.000
 set_heuristic_parameters             2  7.5    0.000    0.000    0.000    0.000
 kpoint_initialize                    1  2.0    0.000    0.000    0.000    0.000
 cp_result_value_copy                 6  8.5    0.000    0.000    0.000    0.000
 cp_fm_redistribute_end               7  9.3    0.000    0.000    0.000    0.000
 qs_ks_did_change                     5  6.0    0.000    0.000    0.000    0.000
 cp_result_release                    1  2.0    0.000    0.000    0.000    0.000
 qs_scf_post_elf                      1  5.0    0.000    0.000    0.000    0.000
 topology_connectivity_pack_3         1  4.0    0.000    0.000    0.000    0.000
 balance_global_list                  2 11.0    0.000    0.000    0.000    0.000
 cp_result_value_release             10  6.3    0.000    0.000    0.000    0.000
 calculate_ecore_self                 1  5.0    0.000    0.000    0.000    0.000
 atom2d_cleanup                       8  9.0    0.000    0.000    0.000    0.000
 read_mgrid_section                   1  3.0    0.000    0.000    0.000    0.000
 read_rirs_input                      1  9.0    0.000    0.000    0.000    0.000
 topology_generate_molecule_PAR       1  5.0    0.000    0.000    0.000    0.000
 cp_ddapc_apply_RF                    4 10.2    0.000    0.000    0.000    0.000
 transport_current                    1  8.0    0.000    0.000    0.000    0.000
 grid_create_basis_set                2  8.0    0.000    0.000    0.000    0.000
 write_symmetry                       1  3.0    0.000    0.000    0.000    0.000
 linres_calculation_low               1  5.0    0.000    0.000    0.000    0.000
 metadyn_read                         1  2.0    0.000    0.000    0.000    0.000
 topology_constraint_pack_1           1  4.0    0.000    0.000    0.000    0.000
 get_VBM_CBM_bandgaps                 3 11.0    0.000    0.000    0.000    0.000
 qs_scf_post_kubo_transport           1  7.0    0.000    0.000    0.000    0.000
 cp_result_value_create              10  8.6    0.000    0.000    0.000    0.000
 mp_sum_dm3                           1  3.0    0.000    0.000    0.000    0.000
 topology_connectivity_pack_1         1  4.0    0.000    0.000    0.000    0.000
 allocate_GW_eigenvalues              1  8.0    0.000    0.000    0.000    0.000
 qs_efield_berry_phase                4  9.2    0.000    0.000    0.000    0.000
 topology_coordinate_pack_5           1  4.0    0.000    0.000    0.000    0.000
 topology_coordinate_pack_7a          1  4.0    0.000    0.000    0.000    0.000
 grid_free_basis_set                  2  2.0    0.000    0.000    0.000    0.000
 print_cutoff_radius_input            4 10.0    0.000    0.000    0.000    0.000
 write_structure_data                 1  3.0    0.000    0.000    0.000    0.000
 read_evgw0_input                     1  9.0    0.000    0.000    0.000    0.000
 read_binary_coordinates              1  3.0    0.000    0.000    0.000    0.000
 fist_neighbor_init                   1  8.0    0.000    0.000    0.000    0.000
 get_i_j_atoms                        2 10.0    0.000    0.000    0.000    0.000
 topology_constraint_pack_7           1  4.0    0.000    0.000    0.000    0.000
 write_gto_basis_sets                 1  3.0    0.000    0.000    0.000    0.000
 cp_result_value_init                 4  7.8    0.000    0.000    0.000    0.000
 qs_scf_post_moments                  1  5.0    0.000    0.000    0.000    0.000
 mp_isend_im2                         8 10.2    0.000    0.000    0.000    0.000
 mp_irecv_im2                         8 10.2    0.000    0.000    0.000    0.000
 write_ks_matrix_csr                  1  7.0    0.000    0.000    0.000    0.000
 qs_scf_post_local_stress             1  7.0    0.000    0.000    0.000    0.000
 qs_scf_post_local_energy             1  7.0    0.000    0.000    0.000    0.000
 qs_scf_post_efg                      1  5.0    0.000    0.000    0.000    0.000
 qs_scf_post_molopt                   1  5.0    0.000    0.000    0.000    0.000
 allocate_qs_energy                   1  3.0    0.000    0.000    0.000    0.000
 write_p_matrix_csr                   1  7.0    0.000    0.000    0.000    0.000
 qs_scf_post_xray                     1  5.0    0.000    0.000    0.000    0.000
 topology_connectivity_pack_7         1  4.0    0.000    0.000    0.000    0.000
 plan_grid_panels                     1 10.0    0.000    0.000    0.000    0.000
 write_hcore_matrix_csr               1  7.0    0.000    0.000    0.000    0.000
 write_adjacency_matrix               1  7.0    0.000    0.000    0.000    0.000
 qs_scf_post_epr                      1  5.0    0.000    0.000    0.000    0.000
 write_s_matrix_csr                   1  7.0    0.000    0.000    0.000    0.000
 topology_connectivity_pack_8         1  4.0    0.000    0.000    0.000    0.000
 write_dm_binary_restart              1  7.0    0.000    0.000    0.000    0.000
 topology_coordinate_pack_89          1  4.0    0.000    0.000    0.000    0.000
 write_mos_molden                     1  7.0    0.000    0.000    0.000    0.000
 handle_ext_restart                   1  3.0    0.000    0.000    0.000    0.000
 rt_bse_ri_rs_ensure_grid             2  5.0    0.000    0.000    0.000    0.000
 add_external_potential               1  3.0    0.000    0.000    0.000    0.000
 topology_muc                         1  4.0    0.000    0.000    0.000    0.000
 square_mesh                          2 11.0    0.000    0.000    0.000    0.000
 topology_coordinate_pack_6           1  4.0    0.000    0.000    0.000    0.000
 qs_scf_post_et                       1  5.0    0.000    0.000    0.000    0.000
 ps_implicit_release                  2  4.0    0.000    0.000    0.000    0.000
 topology_coordinate_pack_3           1  4.0    0.000    0.000    0.000    0.000
 wfn_mix                              1  5.0    0.000    0.000    0.000    0.000
 tddfpt2_control_release              2  2.0    0.000    0.000    0.000    0.000
 compute_matrix_w                     1  4.0    0.000    0.000    0.000    0.000
 topology_coordinate_pack_7b          1  4.0    0.000    0.000    0.000    0.000
 wannier90_interface                  1  5.0    0.000    0.000    0.000    0.000
 calculate_ecore_efield               1  5.0    0.000    0.000    0.000    0.000
 topology_generate_bend               1  4.0    0.000    0.000    0.000    0.000
 topology_connectivity_pack_14_       1  4.0    0.000    0.000    0.000    0.000
 topology_connectivity_pack_11_       1  4.0    0.000    0.000    0.000    0.000
 init_ec_env                          1  2.0    0.000    0.000    0.000    0.000
 read_auto_ri_input                   1  9.0    0.000    0.000    0.000    0.000
 external_c_potential                 1  5.0    0.000    0.000    0.000    0.000
 topology_constraint_pack_6           1  4.0    0.000    0.000    0.000    0.000
 auto_ri_release                      1  3.0    0.000    0.000    0.000    0.000
 tddfpt2_control_create               2  3.0    0.000    0.000    0.000    0.000
 fp_env_read                          1  2.0    0.000    0.000    0.000    0.000
 smeagol_control_create               1  3.0    0.000    0.000    0.000    0.000
 topology_connectivity_pack_13_       1  4.0    0.000    0.000    0.000    0.000
 smeagol_control_release              1  2.0    0.000    0.000    0.000    0.000
 rescale_forces                       1  3.0    0.000    0.000    0.000    0.000
 topology_generate_bond_7             1  5.0    0.000    0.000    0.000    0.000
 external_e_potential                 1  5.0    0.000    0.000    0.000    0.000
 fp_env_write                         1  2.0    0.000    0.000    0.000    0.000
 topology_connectivity_pack_12_       1  4.0    0.000    0.000    0.000    0.000
 reset_and_clean_bs_env               1  9.0    0.000    0.000    0.000    0.000
 topology_coordinate_pack_4           1  4.0    0.000    0.000    0.000    0.000
 topology_generate_dihe               1  4.0    0.000    0.000    0.000    0.000
 pw_env_create                        1  5.0    0.000    0.000    0.000    0.000
 init_harris_env                      1  3.0    0.000    0.000    0.000    0.000
 topology_generate_impr               1  4.0    0.000    0.000    0.000    0.000
 external_read_density                1  5.0    0.000    0.000    0.000    0.000
 topology_coordinate_pack_10          1  4.0    0.000    0.000    0.000    0.000
 topology_connectivity_pack_1.1       1  4.0    0.000    0.000    0.000    0.000
 check_qs_kind_set                    1  3.0    0.000    0.000    0.000    0.000
 topology_constraint_pack_3           1  4.0    0.000    0.000    0.000    0.000
 topology_coordinate_pack_2           1  4.0    0.000    0.000    0.000    0.000
 topology_constraint_pack_2           1  4.0    0.000    0.000    0.000    0.000
 cp_result_create                     1  2.0    0.000    0.000    0.000    0.000
 excited_state_energy                 1  4.0    0.000    0.000    0.000    0.000
 topology_constraint_pack_4           1  4.0    0.000    0.000    0.000    0.000
 topology_generate_ub                 1  4.0    0.000    0.000    0.000    0.000
 cleanup_scf_loop                     1  6.0    0.000    0.000    0.000    0.000
 -------------------------------------------------------------------------------

 The number of warnings for this run is : 1
 
 -------------------------------------------------------------------------------
  **** **** ******  **  PROGRAM ENDED AT                 2026-09-29 02:58:17.895
 ***** ** ***  *** **   PROGRAM RAN ON                                 n2lcn0162
 **    ****   ******    PROGRAM RAN BY                                  metdyn07
 ***** **    ** ** **   PROGRAM PROCESS ID                                854651
  **** **  *******  **  PROGRAM STOPPED IN /scratch/hpc-prf-metdyn/metdyn07_Rita
                                           j/otus/max-nanographene/8
