cpu-bind=MASK - n2lcn0141, task  0  0 [1164804]: mask 0x|BBBBBBBB|BBBBBBBB||--------|--------||--------|--------||--------|--------||||--------|--------||--------|--------||--------|--------||--------|--------| set
cpu-bind=MASK - n2lcn0141, task  1  1 [1164805]: mask 0x|--------|--------||BBBBBBBB|BBBBBBBB||--------|--------||--------|--------||||--------|--------||--------|--------||--------|--------||--------|--------| set
cpu-bind=MASK - n2lcn0141, task  2  2 [1164806]: mask 0x|--------|--------||--------|--------||BBBBBBBB|BBBBBBBB||--------|--------||||--------|--------||--------|--------||--------|--------||--------|--------| set
cpu-bind=MASK - n2lcn0156, task 24  0 [669562]: mask 0x|BBBBBBBB|BBBBBBBB||--------|--------||--------|--------||--------|--------||||--------|--------||--------|--------||--------|--------||--------|--------| set
cpu-bind=MASK - n2lcn0141, task  3  3 [1164807]: mask 0x|--------|--------||--------|--------||--------|--------||BBBBBBBB|BBBBBBBB||||--------|--------||--------|--------||--------|--------||--------|--------| set
cpu-bind=MASK - n2lcn0156, task 25  1 [669563]: mask 0x|--------|--------||BBBBBBBB|BBBBBBBB||--------|--------||--------|--------||||--------|--------||--------|--------||--------|--------||--------|--------| set
cpu-bind=MASK - n2lcn0141, task  4  4 [1164808]: mask 0x|--------|--------||--------|--------||--------|--------||--------|--------||||BBBBBBBB|BBBBBBBB||--------|--------||--------|--------||--------|--------| set
cpu-bind=MASK - n2lcn0156, task 26  2 [669564]: mask 0x|--------|--------||--------|--------||BBBBBBBB|BBBBBBBB||--------|--------||||--------|--------||--------|--------||--------|--------||--------|--------| set
cpu-bind=MASK - n2lcn0141, task  5  5 [1164809]: mask 0x|--------|--------||--------|--------||--------|--------||--------|--------||||--------|--------||BBBBBBBB|BBBBBBBB||--------|--------||--------|--------| set
cpu-bind=MASK - n2lcn0156, task 27  3 [669565]: mask 0x|--------|--------||--------|--------||--------|--------||BBBBBBBB|BBBBBBBB||||--------|--------||--------|--------||--------|--------||--------|--------| set
cpu-bind=MASK - n2lcn0141, task  6  6 [1164810]: mask 0x|--------|--------||--------|--------||--------|--------||--------|--------||||--------|--------||--------|--------||BBBBBBBB|BBBBBBBB||--------|--------| set
cpu-bind=MASK - n2lcn0156, task 28  4 [669566]: mask 0x|--------|--------||--------|--------||--------|--------||--------|--------||||BBBBBBBB|BBBBBBBB||--------|--------||--------|--------||--------|--------| set
cpu-bind=MASK - n2lcn0156, task 29  5 [669567]: mask 0x|--------|--------||--------|--------||--------|--------||--------|--------||||--------|--------||BBBBBBBB|BBBBBBBB||--------|--------||--------|--------| set
cpu-bind=MASK - n2lcn0146, task 16  0 [753286]: mask 0x|BBBBBBBB|BBBBBBBB||--------|--------||--------|--------||--------|--------||||--------|--------||--------|--------||--------|--------||--------|--------| set
cpu-bind=MASK - n2lcn0156, task 30  6 [669568]: mask 0x|--------|--------||--------|--------||--------|--------||--------|--------||||--------|--------||--------|--------||BBBBBBBB|BBBBBBBB||--------|--------| set
cpu-bind=MASK - n2lcn0146, task 17  1 [753287]: mask 0x|--------|--------||BBBBBBBB|BBBBBBBB||--------|--------||--------|--------||||--------|--------||--------|--------||--------|--------||--------|--------| set
cpu-bind=MASK - n2lcn0143, task  8  0 [991779]: mask 0x|BBBBBBBB|BBBBBBBB||--------|--------||--------|--------||--------|--------||||--------|--------||--------|--------||--------|--------||--------|--------| set
cpu-bind=MASK - n2lcn0146, task 18  2 [753288]: mask 0x|--------|--------||--------|--------||BBBBBBBB|BBBBBBBB||--------|--------||||--------|--------||--------|--------||--------|--------||--------|--------| set
cpu-bind=MASK - n2lcn0143, task  9  1 [991780]: mask 0x|--------|--------||BBBBBBBB|BBBBBBBB||--------|--------||--------|--------||||--------|--------||--------|--------||--------|--------||--------|--------| set
cpu-bind=MASK - n2lcn0146, task 19  3 [753289]: mask 0x|--------|--------||--------|--------||--------|--------||BBBBBBBB|BBBBBBBB||||--------|--------||--------|--------||--------|--------||--------|--------| set
cpu-bind=MASK - n2lcn0143, task 10  2 [991781]: mask 0x|--------|--------||--------|--------||BBBBBBBB|BBBBBBBB||--------|--------||||--------|--------||--------|--------||--------|--------||--------|--------| set
cpu-bind=MASK - n2lcn0143, task 11  3 [991782]: mask 0x|--------|--------||--------|--------||--------|--------||BBBBBBBB|BBBBBBBB||||--------|--------||--------|--------||--------|--------||--------|--------| set
cpu-bind=MASK - n2lcn0146, task 20  4 [753290]: mask 0x|--------|--------||--------|--------||--------|--------||--------|--------||||BBBBBBBB|BBBBBBBB||--------|--------||--------|--------||--------|--------| set
cpu-bind=MASK - n2lcn0143, task 12  4 [991783]: mask 0x|--------|--------||--------|--------||--------|--------||--------|--------||||BBBBBBBB|BBBBBBBB||--------|--------||--------|--------||--------|--------| set
cpu-bind=MASK - n2lcn0146, task 21  5 [753291]: mask 0x|--------|--------||--------|--------||--------|--------||--------|--------||||--------|--------||BBBBBBBB|BBBBBBBB||--------|--------||--------|--------| set
cpu-bind=MASK - n2lcn0141, task  7  7 [1164811]: mask 0x|--------|--------||--------|--------||--------|--------||--------|--------||||--------|--------||--------|--------||--------|--------||BBBBBBBB|BBBBBBBB| set
cpu-bind=MASK - n2lcn0143, task 13  5 [991784]: mask 0x|--------|--------||--------|--------||--------|--------||--------|--------||||--------|--------||BBBBBBBB|BBBBBBBB||--------|--------||--------|--------| set
cpu-bind=MASK - n2lcn0146, task 22  6 [753292]: mask 0x|--------|--------||--------|--------||--------|--------||--------|--------||||--------|--------||--------|--------||BBBBBBBB|BBBBBBBB||--------|--------| set
cpu-bind=MASK - n2lcn0143, task 14  6 [991785]: mask 0x|--------|--------||--------|--------||--------|--------||--------|--------||||--------|--------||--------|--------||BBBBBBBB|BBBBBBBB||--------|--------| set
cpu-bind=MASK - n2lcn0156, task 31  7 [669569]: mask 0x|--------|--------||--------|--------||--------|--------||--------|--------||||--------|--------||--------|--------||--------|--------||BBBBBBBB|BBBBBBBB| set
cpu-bind=MASK - n2lcn0146, task 23  7 [753293]: mask 0x|--------|--------||--------|--------||--------|--------||--------|--------||||--------|--------||--------|--------||--------|--------||BBBBBBBB|BBBBBBBB| set
cpu-bind=MASK - n2lcn0143, task 15  7 [991786]: mask 0x|--------|--------||--------|--------||--------|--------||--------|--------||||--------|--------||--------|--------||--------|--------||BBBBBBBB|BBBBBBBB| set
 DBCSR| CPU Multiplication driver                                           XSMM (U)
 DBCSR| Multrec recursion limit                                              512 (U)
 DBCSR| Multiplication stack size                                           1000 (D)
 DBCSR| Maximum elements for images                                    UNLIMITED (U)
 DBCSR| Multiplicative factor virtual images                                   1 (U)
 DBCSR| Use multiplication densification                                       T (D)
 DBCSR| Multiplication size stacks                                             3 (U)
 DBCSR| Use memory pool for CPU allocation                                     F (U)
 DBCSR| Number of 3D layers                                               SINGLE (U)
 DBCSR| Use MPI memory allocation                                              F (U)
 DBCSR| Use RMA algorithm                                                      F (U)
 DBCSR| Use Communication thread                                               T (U)
 DBCSR| Communication thread load                                             30 (D)
 DBCSR| MPI: My process id                                                     0
 DBCSR| MPI: Number of processes                                              32
 DBCSR| OMP: Current number of threads                                        16
 DBCSR| OMP: Max number of threads                                            16
 DBCSR| Split modifier for TAS multiplication algorithm                  1.0E+00 (U)


  **** **** ******  **  PROGRAM STARTED AT               2026-09-27 08:10:52.707
 ***** ** ***  *** **   PROGRAM STARTED ON                             n2lcn0141
 **    ****   ******    PROGRAM STARTED BY                              metdyn07
 ***** **    ** ** **   PROGRAM PROCESS ID                               1164804
  **** **  *******  **  PROGRAM STARTED IN /scratch/hpc-prf-metdyn/metdyn07_Rita
                                           j/otus/max-nanographene/16

 CP2K| version string:                 CP2K version 2026.2 (Development Version)
 CP2K| source code revision number:                                   0005d2399e
 CP2K| cp2kflags: omp libint fftw3 libxc elpa parallel scalapack mpi_f08 cosma l
 CP2K|            ibxs libxsmm plumed2 spglib openblas sirius libvori libbqb lib
 CP2K|            bvdwxc hdf5 greenx
 CP2K| is freely available from                            https://www.cp2k.org/
 CP2K| Program compiled at                                   2026-09-14 14:16:23
 CP2K| Program compiled on                                              n2login5
 CP2K| Program compiled for                                               x86_64
 CP2K| Data directory path    /pc2/groups/hpc-prf-metdyn/metdyn07_Ritaj/implemen
 CP2K| Input file name                                                 input.inp

 GLOBAL| Force Environment number                                              1
 GLOBAL| Basis set file name             BASIS_GTH_MOLOPT_AUG_for_excited_states
 GLOBAL| Potential file name                                      GTH_POTENTIALS
 GLOBAL| MM Potential file name                                     MM_POTENTIAL
 GLOBAL| Coordinate file name                                          struc.xyz
 GLOBAL| Method name                                                        CP2K
 GLOBAL| Project name                                                      rec_4
 GLOBAL| Run type                                                 RT_PROPAGATION
 GLOBAL| FFT library                                                       FFTW3
 GLOBAL| Diagonalization library                                            ELPA
 GLOBAL| Cholesky decomposition library                                ScaLAPACK
 GLOBAL| DGEMM library                                                      BLAS
 GLOBAL| Minimum number of eigenvectors for ELPA usage                        64
 GLOBAL| Orthonormality check for eigenvectors                          DISABLED
 GLOBAL| Matrix multiplication library                                     COSMA
 GLOBAL| All-to-all communication in single precision                          F
 GLOBAL| Grid backend                                                       AUTO
 GLOBAL| Global print level                                               MEDIUM
 GLOBAL| MPI I/O enabled                                                       T
 GLOBAL| Total number of message passing processes                            32
 GLOBAL| Number of distributed systems (nodes)                                 4
 GLOBAL| Number of threads for this process                                   16
 GLOBAL| This output is from process                                           0
 GLOBAL| OpenMP stack size per thread (OMP_STACKSIZE)                    default
 GLOBAL| CPU model name                          AMD EPYC 7763 64-Core Processor
 GLOBAL| CPUID                                                              1002
 GLOBAL| Compiled for CPUID                                                    0

 *** HINT in environment.F:968 :: The compiler target (generic) used to ***
 *** build this binary does not enable all instruction-set extensions   ***
 *** available on this CPU (x86_avx2). Consider reconfiguring and       ***
 *** rebuilding CP2K for this target system to enable them.             ***


 MEMORY| system memory details [Kb]
 MEMORY|                        rank 0           min           max       average
 MEMORY| MemTotal           1056620492    1056620440    1056620500    1056620469
 MEMORY| MemFree            1041140696    1040954780    1042272356    1041446641
 MEMORY| Buffers                413052        277884        413052        357451
 MEMORY| Cached                8118512       7358168       8426720       7974192
 MEMORY| Slab                  1902044       1759772       1902044       1840037
 MEMORY| SReclaimable           527284        484196        555100        518459
 MEMORY| MemLikelyFree      1050199544    1050191740    1050463508    1050296743


 *** Fundamental physical constants (SI units) ***

 *** Literature: B. J. Mohr and B. N. Taylor,
 ***             CODATA recommended values of the fundamental physical
 ***             constants: 2006, Web Version 5.1
 ***             http://physics.nist.gov/constants

 Speed of light in vacuum [m/s]                             2.99792458000000E+08
 Magnetic constant or permeability of vacuum [N/A**2]       1.25663706143592E-06
 Electric constant or permittivity of vacuum [F/m]          8.85418781762039E-12
 Planck constant (h) [J*s]                                  6.62606896000000E-34
 Planck constant (h-bar) [J*s]                              1.05457162825177E-34
 Elementary charge [C]                                      1.60217648700000E-19
 Electron mass [kg]                                         9.10938215000000E-31
 Electron g factor [ ]                                     -2.00231930436220E+00
 Proton mass [kg]                                           1.67262163700000E-27
 Fine-structure constant                                    7.29735253760000E-03
 Rydberg constant [1/m]                                     1.09737315685270E+07
 Avogadro constant [1/mol]                                  6.02214179000000E+23
 Boltzmann constant [J/K]                                   1.38065040000000E-23
 Atomic mass unit [kg]                                      1.66053878200000E-27
 Bohr radius [m]                                            5.29177208590000E-11

 *** Conversion factors ***

 [u] -> [a.u.]                                              1.82288848426455E+03
 [Angstrom] -> [Bohr] = [a.u.]                              1.88972613288564E+00
 [a.u.] = [Bohr] -> [Angstrom]                              5.29177208590000E-01
 [a.u.] -> [s]                                              2.41888432650478E-17
 [a.u.] -> [fs]                                             2.41888432650478E-02
 [a.u.] -> [J]                                              4.35974393937059E-18
 [a.u.] -> [N]                                              8.23872205491840E-08
 [a.u.] -> [K]                                              3.15774647902944E+05
 [a.u.] -> [kJ/mol]                                         2.62549961709828E+03
 [a.u.] -> [kcal/mol]                                       6.27509468713739E+02
 [a.u.] -> [Pa]                                             2.94210107994716E+13
 [a.u.] -> [bar]                                            2.94210107994716E+08
 [a.u.] -> [atm]                                            2.90362800883016E+08
 [a.u.] -> [eV]                                             2.72113838565563E+01
 [a.u.] -> [Hz]                                             6.57968392072181E+15
 [a.u.] -> [1/cm] (wave numbers)                            2.19474631370540E+05
 [a.u./Bohr**2] -> [1/cm]                                   5.14048714338585E+03
 

 CELL| Volume [angstrom^3]:                                         17503.266165
 CELL| Vector a [angstrom]:      19.190     0.000     0.000   |a| =    19.190000
 CELL| Vector b [angstrom]:       0.000    78.970     0.000   |b| =    78.970000
 CELL| Vector c [angstrom]:       0.000     0.000    11.550   |c| =    11.550000
 CELL| Angle (b,c), alpha [degree]:                                    90.000000
 CELL| Angle (a,c), beta  [degree]:                                    90.000000
 CELL| Angle (a,b), gamma [degree]:                                    90.000000
 CELL| Numerically orthorhombic:                                             YES
 CELL| Periodicity                                                          NONE

 CELL_REF| Volume [angstrom^3]:                                     17503.266165
 CELL_REF| Vector a [angstrom    19.190     0.000     0.000   |a| =    19.190000
 CELL_REF| Vector b [angstrom     0.000    78.970     0.000   |b| =    78.970000
 CELL_REF| Vector c [angstrom     0.000     0.000    11.550   |c| =    11.550000
 CELL_REF| Angle (b,c), alpha [degree]:                                90.000000
 CELL_REF| Angle (a,c), beta  [degree]:                                90.000000
 CELL_REF| Angle (a,b), gamma [degree]:                                90.000000
 CELL_REF| Numerically orthorhombic:                                         YES
 CELL_REF| Periodicity                                                      NONE

 GENERATE|  Preliminary Number of Bonds generated:                             0
 GENERATE|  Achieved consistency in connectivity generation.

 PW_GRID| Information for grid number                                          1
 PW_GRID| Cutoff [a.u.]                                                      0.5
 PW_GRID| spherical cutoff:                                                   NO
 PW_GRID|   Bounds   1              0      49                Points:          50
 PW_GRID|   Bounds   2              0      49                Points:          50
 PW_GRID|   Bounds   3              0      49                Points:          50
 PW_GRID| Volume element (a.u.^3)  0.9449         Volume (a.u.^3)    118117.8964
 PW_GRID| Grid span                                                    HALFSPACE

 *******************************************************************************
 *******************************************************************************
 **                                                                           **
 **     #####                         ##              ##                      **
 **    ##   ##            ##          ##              ##                      **
 **   ##     ##                       ##            ######                    **
 **   ##     ##  ##   ##  ##   #####  ##  ##   ####   ##    #####    #####    **
 **   ##     ##  ##   ##  ##  ##      ## ##   ##      ##   ##   ##  ##   ##   **
 **   ##  ## ##  ##   ##  ##  ##      ####     ###    ##   ######   ######    **
 **    ##  ###   ##   ##  ##  ##      ## ##      ##   ##   ##       ##        **
 **     #######   #####   ##   #####  ##  ##  ####    ##    #####   ##        **
 **           ##                                                    ##        **
 **                                                                           **
 **                                                ... make the atoms dance   **
 **                                                                           **
 **            Copyright (C) by CP2K developers group (2000-2026)             **
 **                      J. Chem. Phys. 152, 194103 (2020)                    **
 **                                                                           **
 *******************************************************************************

 DFT| Spin restricted Kohn-Sham (RKS) calculation                            RKS
 DFT| Multiplicity                                                             1
 DFT| Number of spin states                                                    1
 DFT| Charge                                                                   0
 DFT| Self-interaction correction (SIC)                                       NO
 DFT| Cutoffs: density                                              1.000000E-10
 DFT|          gradient                                             1.000000E-10
 DFT|          tau                                                  1.000000E-10
 DFT|          cutoff_smoothing_range                               0.000000E+00
 DFT| XC density smoothing                                                  NONE
 DFT| XC derivatives                                                          PW

 FUNCTIONAL| PBE:
 FUNCTIONAL| J.P.Perdew, K.Burke, M.Ernzerhof, Phys. Rev. Letter, vol. 77, n 18,
 FUNCTIONAL|  pp. 3865-3868, (1996) {spin unpolarized}                          


 QS| Method:                                                                 GPW
 QS| Density plane wave grid type                        NON-SPHERICAL FULLSPACE
 QS| Number of grid levels:                                                    4
 QS| Density cutoff [a.u.]:                                                300.0
 QS| Multi grid cutoff [a.u.]: 1) grid level                               300.0
 QS|                           2) grid level                               100.0
 QS|                           3) grid level                                33.3
 QS|                           4) grid level                                11.1
 QS| Grid level progression factor:                                          3.0
 QS| Relative density cutoff [a.u.]:                                        30.0
 QS| Interaction thresholds: eps_pgf_orb:                                3.2E-08
 QS|                         eps_filter_matrix:                          0.0E+00
 QS|                         eps_core_charge:                            1.0E-17
 QS|                         eps_rho_gspace:                             1.0E-15
 QS|                         eps_rho_rspace:                             1.0E-15
 QS|                         eps_gvg_rspace:                             3.2E-08
 QS|                         eps_ppl:                                    1.0E-02
 QS|                         eps_ppnl:                                   3.2E-10


 ATOMIC KIND INFORMATION

  1. Atomic kind: H                                     Number of atoms:      72

     Orbital Basis Set                                 aug-SZV-MOLOPT-GTH-tier-2

       Number of orbital shell sets:                                           1
       Number of orbital shells:                                               4
       Number of primitive Cartesian functions:                                7
       Number of Cartesian basis functions:                                    6
       Number of spherical basis functions:                                    6
       Norm type:                                                              2

       Normalised Cartesian orbitals:

                        Set   Shell   Orbital            Exponent    Coefficient

                          1       1    2s                0.050000       0.000000
                                                         0.082193      -0.014019
                                                         0.239116      -0.107525
                                                         0.450000       0.000000
                                                         0.791502      -0.258419
                                                         2.680223      -0.177618
                                                        10.068468      -0.133023

                          1       2    3s                0.050000       0.064974
                                                         0.082193       0.029198
                                                         0.239116      -0.007574
                                                         0.450000      -0.090795
                                                         0.791502      -0.025739
                                                         2.680223       0.000002
                                                        10.068468       0.000000

                          1       3    4s                0.050000      -0.067626
                                                         0.082193       0.244167
                                                         0.239116      -0.094768
                                                         0.450000      -0.043967
                                                         0.791502      -0.043572
                                                         2.680223      -0.153771
                                                        10.068468       0.000000

                          1       4    3px               0.050000       0.038628
                                                         0.082193      -0.015554
                                                         0.239116       0.034455
                                                         0.450000       0.013474
                                                         0.791502      -0.005076
                                                         2.680223       0.028739
                                                        10.068468       0.000000
                          1       4    3py               0.050000       0.038628
                                                         0.082193      -0.015554
                                                         0.239116       0.034455
                                                         0.450000       0.013474
                                                         0.791502      -0.005076
                                                         2.680223       0.028739
                                                        10.068468       0.000000
                          1       4    3pz               0.050000       0.038628
                                                         0.082193      -0.015554
                                                         0.239116       0.034455
                                                         0.450000       0.013474
                                                         0.791502      -0.005076
                                                         2.680223       0.028739
                                                        10.068468       0.000000

     RI Auxiliary Basis Set             RI_aug-SZV-MOLOPT-GTH-tier-2_N_RI_005_s_

       Number of orbital shell sets:                                           3
       Number of orbital shells:                                               3
       Number of primitive Cartesian functions:                                3
       Number of Cartesian basis functions:                                    5
       Number of spherical basis functions:                                    5
       Norm type:                                                              2

       Normalised Cartesian orbitals:

                        Set   Shell   Orbital            Exponent    Coefficient

                          1       1    1s                0.184491       0.200628

                          2       1    2s                3.030559       1.637013

                          3       1    3px               0.610174       0.768701
                          3       1    3py               0.610174       0.768701
                          3       1    3pz               0.610174       0.768701

       Atomic covalent radius [Angstrom]:                                  0.320

       Atomic van der Waals radius [Angstrom]:                             1.090

     GTH Potential information for                                    GTH-PBE-q1

       Description:                       Goedecker-Teter-Hutter pseudopotential
                                           Goedecker et al., PRB 54, 1703 (1996)
                                          Hartwigsen et al., PRB 58, 3641 (1998)
                                                      Krack, TCA 114, 145 (2005)

       Gaussian exponent of the core charge distribution:              12.500000
       Electronic configuration (s p d ...):                                   1

       Parameters of the local part of the GTH pseudopotential:

                          rloc        C1          C2          C3          C4
                        0.200000   -4.178900    0.724463

  2. Atomic kind: C                                     Number of atoms:     224

     Orbital Basis Set                                 aug-SZV-MOLOPT-GTH-tier-2

       Number of orbital shell sets:                                           1
       Number of orbital shells:                                               5
       Number of primitive Cartesian functions:                                6
       Number of Cartesian basis functions:                                   14
       Number of spherical basis functions:                                   13
       Norm type:                                                              2

       Normalised Cartesian orbitals:

                        Set   Shell   Orbital            Exponent    Coefficient

                          1       1    2s                0.070000       0.000000
                                                         0.128212      -0.022789
                                                         0.348157      -0.219794
                                                         0.769911      -0.209686
                                                         2.113016       0.213043
                                                         5.605331       0.322515

                          1       2    3s                0.070000       0.133509
                                                         0.128212      -0.041206
                                                         0.348157      -0.081784
                                                         0.769911      -0.003005
                                                         2.113016       0.000000
                                                         5.605331       0.000000

                          1       3    3px               0.070000       0.000000
                                                         0.128212      -0.027849
                                                         0.348157      -0.139743
                                                         0.769911      -0.374851
                                                         2.113016      -0.642521
                                                         5.605331      -0.703879
                          1       3    3py               0.070000       0.000000
                                                         0.128212      -0.027849
                                                         0.348157      -0.139743
                                                         0.769911      -0.374851
                                                         2.113016      -0.642521
                                                         5.605331      -0.703879
                          1       3    3pz               0.070000       0.000000
                                                         0.128212      -0.027849
                                                         0.348157      -0.139743
                                                         0.769911      -0.374851
                                                         2.113016      -0.642521
                                                         5.605331      -0.703879

                          1       4    4px               0.070000       0.033242
                                                         0.128212       0.023307
                                                         0.348157       0.113522
                                                         0.769911      -0.094955
                                                         2.113016       0.000000
                                                         5.605331       0.000000
                          1       4    4py               0.070000       0.033242
                                                         0.128212       0.023307
                                                         0.348157       0.113522
                                                         0.769911      -0.094955
                                                         2.113016       0.000000
                                                         5.605331       0.000000
                          1       4    4pz               0.070000       0.033242
                                                         0.128212       0.023307
                                                         0.348157       0.113522
                                                         0.769911      -0.094955
                                                         2.113016       0.000000
                                                         5.605331       0.000000

                          1       5    4dx2              0.070000      -0.000111
                                                         0.128212       0.037828
                                                         0.348157       0.043639
                                                         0.769911       0.120124
                                                         2.113016       0.000000
                                                         5.605331       0.000000
                          1       5    4dxy              0.070000      -0.000193
                                                         0.128212       0.065520
                                                         0.348157       0.075585
                                                         0.769911       0.208061
                                                         2.113016       0.000000
                                                         5.605331       0.000000
                          1       5    4dxz              0.070000      -0.000193
                                                         0.128212       0.065520
                                                         0.348157       0.075585
                                                         0.769911       0.208061
                                                         2.113016       0.000000
                                                         5.605331       0.000000
                          1       5    4dy2              0.070000      -0.000111
                                                         0.128212       0.037828
                                                         0.348157       0.043639
                                                         0.769911       0.120124
                                                         2.113016       0.000000
                                                         5.605331       0.000000
                          1       5    4dyz              0.070000      -0.000193
                                                         0.128212       0.065520
                                                         0.348157       0.075585
                                                         0.769911       0.208061
                                                         2.113016       0.000000
                                                         5.605331       0.000000
                          1       5    4dz2              0.070000      -0.000111
                                                         0.128212       0.037828
                                                         0.348157       0.043639
                                                         0.769911       0.120124
                                                         2.113016       0.000000
                                                         5.605331       0.000000

     RI Auxiliary Basis Set             RI_aug-SZV-MOLOPT-GTH-tier-2_N_RI_030_s_

       Number of orbital shell sets:                                          10
       Number of orbital shells:                                              10
       Number of primitive Cartesian functions:                               10
       Number of Cartesian basis functions:                                   35
       Number of spherical basis functions:                                   30
       Norm type:                                                              2

       Normalised Cartesian orbitals:

                        Set   Shell   Orbital            Exponent    Coefficient

                          1       1    1s                0.191848       0.206599

                          2       1    2s                0.736300       0.566502

                          3       1    3s                2.917592       1.591031

                          4       1    4s                9.448168       3.840792

                          5       1    5px               0.281885       0.292772
                          5       1    5py               0.281885       0.292772
                          5       1    5pz               0.281885       0.292772

                          6       1    6px               0.984576       1.397983
                          6       1    6py               0.984576       1.397983
                          6       1    6pz               0.984576       1.397983

                          7       1    7px               2.475409       4.425871
                          7       1    7py               2.475409       4.425871
                          7       1    7pz               2.475409       4.425871

                          8       1    8dx2              0.347629       0.259037
                          8       1    8dxy              0.347629       0.448666
                          8       1    8dxz              0.347629       0.448666
                          8       1    8dy2              0.347629       0.259037
                          8       1    8dyz              0.347629       0.448666
                          8       1    8dz2              0.347629       0.259037

                          9       1    9dx2              1.822216       4.703911
                          9       1    9dxy              1.822216       8.147414
                          9       1    9dxz              1.822216       8.147414
                          9       1    9dy2              1.822216       4.703911
                          9       1    9dyz              1.822216       8.147414
                          9       1    9dz2              1.822216       4.703911

                         10       1   10fx3              0.497967       0.306659
                         10       1   10fx2y             0.497967       0.685710
                         10       1   10fx2z             0.497967       0.685710
                         10       1   10fxy2             0.497967       0.685710
                         10       1   10fxyz             0.497967       1.187685
                         10       1   10fxz2             0.497967       0.685710
                         10       1   10fy3              0.497967       0.306659
                         10       1   10fy2z             0.497967       0.685710
                         10       1   10fyz2             0.497967       0.685710
                         10       1   10fz3              0.497967       0.306659

       Atomic covalent radius [Angstrom]:                                  0.770

       Atomic van der Waals radius [Angstrom]:                             1.700

     GTH Potential information for                                    GTH-PBE-q4

       Description:                       Goedecker-Teter-Hutter pseudopotential
                                           Goedecker et al., PRB 54, 1703 (1996)
                                          Hartwigsen et al., PRB 58, 3641 (1998)
                                                      Krack, TCA 114, 145 (2005)

       Gaussian exponent of the core charge distribution:               4.364419
       Electronic configuration (s p d ...):                               2   2

       Parameters of the local part of the GTH pseudopotential:

                          rloc        C1          C2          C3          C4
                        0.338471   -8.803674    1.339211

       Parameters of the non-local part of the GTH pseudopotential:

                   l      r(l)      h(i,j,l)

                   0    0.302576    9.622487
                   1    0.291507


 MOLECULE KIND INFORMATION


 All atoms are their own molecule, skipping detailed information


 TOTAL NUMBERS AND MAXIMUM NUMBERS

  Total number of            - Atomic kinds:                                   2
                             - Atoms:                                        296
                             - Shell sets:                                   296
                             - Shells:                                      1408
                             - Primitive Cartesian functions:               1848
                             - Cartesian basis functions:                   3568
                             - Spherical basis functions:                   3344

  Maximum angular momentum of- Orbital basis functions:                        2
                             - Local part of the GTH pseudopotential:          2
                             - Non-local part of the GTH pseudopotential:      0


 MODULE QUICKSTEP: ATOMIC COORDINATES IN ANGSTROM

   Atom Kind Element         X             Y             Z       Z(eff)     Mass
      1    1 H     1     12.035671      4.997654      5.775000   1.0000   1.0079
      2    1 H     1      7.154329      4.997654      5.775000   1.0000   1.0079
      3    1 H     1      9.595000      5.308900      5.001956   1.0000   1.0079
      4    1 H     1      9.595000      5.308900      6.548044   1.0000   1.0079
      5    2 C     6      9.595000      6.081944      5.775000   4.0000  12.0107
      6    2 C     6     12.035671      6.090904      5.775000   4.0000  12.0107
      7    2 C     6      7.154329      6.090904      5.775000   4.0000  12.0107
      8    1 H     1      4.998191      6.305607      5.775000   1.0000   1.0079
      9    1 H     1     14.191809      6.305607      5.775000   1.0000   1.0079
     10    2 C     6     10.818523      6.795129      5.775000   4.0000  12.0107
     11    2 C     6      8.371477      6.795129      5.775000   4.0000  12.0107
     12    2 C     6     13.230017      6.825375      5.775000   4.0000  12.0107
     13    2 C     6      5.959983      6.825375      5.775000   4.0000  12.0107
     14    2 C     6     13.230017      8.183729      5.775000   4.0000  12.0107
     15    2 C     6      5.959983      8.183729      5.775000   4.0000  12.0107
     16    2 C     6      8.371477      8.213974      5.775000   4.0000  12.0107
     17    2 C     6     10.818523      8.213974      5.775000   4.0000  12.0107
     18    1 H     1      4.998191      8.703496      5.775000   1.0000   1.0079
     19    1 H     1     14.191809      8.703496      5.775000   1.0000   1.0079
     20    2 C     6     12.035671      8.918199      5.775000   4.0000  12.0107
     21    2 C     6      7.154329      8.918199      5.775000   4.0000  12.0107
     22    2 C     6      9.595000      8.927159      5.775000   4.0000  12.0107
     23    2 C     6      9.595000     10.346004      5.775000   4.0000  12.0107
     24    2 C     6      7.154329     10.354964      5.775000   4.0000  12.0107
     25    2 C     6     12.035671     10.354964      5.775000   4.0000  12.0107
     26    1 H     1     14.191809     10.569667      5.775000   1.0000   1.0079
     27    1 H     1      4.998191     10.569667      5.775000   1.0000   1.0079
     28    2 C     6     10.818523     11.059189      5.775000   4.0000  12.0107
     29    2 C     6      8.371477     11.059189      5.775000   4.0000  12.0107
     30    2 C     6      5.959983     11.089434      5.775000   4.0000  12.0107
     31    2 C     6     13.230017     11.089434      5.775000   4.0000  12.0107
     32    2 C     6     13.230017     12.447789      5.775000   4.0000  12.0107
     33    2 C     6      5.959983     12.447789      5.775000   4.0000  12.0107
     34    2 C     6      8.371477     12.478034      5.775000   4.0000  12.0107
     35    2 C     6     10.818523     12.478034      5.775000   4.0000  12.0107
     36    1 H     1      4.998191     12.967556      5.775000   1.0000   1.0079
     37    1 H     1     14.191809     12.967556      5.775000   1.0000   1.0079
     38    2 C     6     12.035671     13.182259      5.775000   4.0000  12.0107
     39    2 C     6      7.154329     13.182259      5.775000   4.0000  12.0107
     40    2 C     6      9.595000     13.191219      5.775000   4.0000  12.0107
     41    2 C     6      9.595000     14.610064      5.775000   4.0000  12.0107
     42    2 C     6      7.154329     14.619024      5.775000   4.0000  12.0107
     43    2 C     6     12.035671     14.619024      5.775000   4.0000  12.0107
     44    1 H     1     14.191809     14.833727      5.775000   1.0000   1.0079
     45    1 H     1      4.998191     14.833727      5.775000   1.0000   1.0079
     46    2 C     6     10.818523     15.323249      5.775000   4.0000  12.0107
     47    2 C     6      8.371477     15.323249      5.775000   4.0000  12.0107
     48    2 C     6      5.959983     15.353494      5.775000   4.0000  12.0107
     49    2 C     6     13.230017     15.353494      5.775000   4.0000  12.0107
     50    2 C     6     13.230017     16.711848      5.775000   4.0000  12.0107
     51    2 C     6      5.959983     16.711848      5.775000   4.0000  12.0107
     52    2 C     6     10.818523     16.742094      5.775000   4.0000  12.0107
     53    2 C     6      8.371477     16.742094      5.775000   4.0000  12.0107
     54    1 H     1     14.191809     17.231616      5.775000   1.0000   1.0079
     55    1 H     1      4.998191     17.231616      5.775000   1.0000   1.0079
     56    2 C     6     12.035671     17.446319      5.775000   4.0000  12.0107
     57    2 C     6      7.154329     17.446319      5.775000   4.0000  12.0107
     58    2 C     6      9.595000     17.455279      5.775000   4.0000  12.0107
     59    2 C     6      9.595000     18.874124      5.775000   4.0000  12.0107
     60    2 C     6      7.154329     18.883084      5.775000   4.0000  12.0107
     61    2 C     6     12.035671     18.883084      5.775000   4.0000  12.0107
     62    1 H     1      4.998191     19.097787      5.775000   1.0000   1.0079
     63    1 H     1     14.191809     19.097787      5.775000   1.0000   1.0079
     64    2 C     6     10.818523     19.587309      5.775000   4.0000  12.0107
     65    2 C     6      8.371477     19.587309      5.775000   4.0000  12.0107
     66    2 C     6     13.230017     19.617554      5.775000   4.0000  12.0107
     67    2 C     6      5.959983     19.617554      5.775000   4.0000  12.0107
     68    2 C     6      5.959983     20.975908      5.775000   4.0000  12.0107
     69    2 C     6     13.230017     20.975908      5.775000   4.0000  12.0107
     70    2 C     6      8.371477     21.006154      5.775000   4.0000  12.0107
     71    2 C     6     10.818523     21.006154      5.775000   4.0000  12.0107
     72    1 H     1      4.998191     21.495676      5.775000   1.0000   1.0079
     73    1 H     1     14.191809     21.495676      5.775000   1.0000   1.0079
     74    2 C     6     12.035671     21.710379      5.775000   4.0000  12.0107
     75    2 C     6      7.154329     21.710379      5.775000   4.0000  12.0107
     76    2 C     6      9.595000     21.719338      5.775000   4.0000  12.0107
     77    2 C     6      9.595000     23.138183      5.775000   4.0000  12.0107
     78    2 C     6     12.035671     23.147143      5.775000   4.0000  12.0107
     79    2 C     6      7.154329     23.147143      5.775000   4.0000  12.0107
     80    1 H     1      4.998191     23.361846      5.775000   1.0000   1.0079
     81    1 H     1     14.191809     23.361846      5.775000   1.0000   1.0079
     82    2 C     6     10.818523     23.851368      5.775000   4.0000  12.0107
     83    2 C     6      8.371477     23.851368      5.775000   4.0000  12.0107
     84    2 C     6      5.959983     23.881614      5.775000   4.0000  12.0107
     85    2 C     6     13.230017     23.881614      5.775000   4.0000  12.0107
     86    2 C     6     13.230017     25.239968      5.775000   4.0000  12.0107
     87    2 C     6      5.959983     25.239968      5.775000   4.0000  12.0107
     88    2 C     6      8.371477     25.270213      5.775000   4.0000  12.0107
     89    2 C     6     10.818523     25.270213      5.775000   4.0000  12.0107
     90    1 H     1      4.998191     25.759735      5.775000   1.0000   1.0079
     91    1 H     1     14.191809     25.759735      5.775000   1.0000   1.0079
     92    2 C     6      7.154329     25.974438      5.775000   4.0000  12.0107
     93    2 C     6     12.035671     25.974438      5.775000   4.0000  12.0107
     94    2 C     6      9.595000     25.983398      5.775000   4.0000  12.0107
     95    2 C     6      9.595000     27.402243      5.775000   4.0000  12.0107
     96    2 C     6      7.154329     27.411203      5.775000   4.0000  12.0107
     97    2 C     6     12.035671     27.411203      5.775000   4.0000  12.0107
     98    1 H     1     14.191809     27.625906      5.775000   1.0000   1.0079
     99    1 H     1      4.998191     27.625906      5.775000   1.0000   1.0079
    100    2 C     6     10.818523     28.115428      5.775000   4.0000  12.0107
    101    2 C     6      8.371477     28.115428      5.775000   4.0000  12.0107
    102    2 C     6      5.959983     28.145673      5.775000   4.0000  12.0107
    103    2 C     6     13.230017     28.145673      5.775000   4.0000  12.0107
    104    2 C     6     13.230017     29.504028      5.775000   4.0000  12.0107
    105    2 C     6      5.959983     29.504028      5.775000   4.0000  12.0107
    106    2 C     6      8.371477     29.534273      5.775000   4.0000  12.0107
    107    2 C     6     10.818523     29.534273      5.775000   4.0000  12.0107
    108    1 H     1      4.998191     30.023795      5.775000   1.0000   1.0079
    109    1 H     1     14.191809     30.023795      5.775000   1.0000   1.0079
    110    2 C     6      7.154329     30.238498      5.775000   4.0000  12.0107
    111    2 C     6     12.035671     30.238498      5.775000   4.0000  12.0107
    112    2 C     6      9.595000     30.247458      5.775000   4.0000  12.0107
    113    2 C     6      9.595000     31.666303      5.775000   4.0000  12.0107
    114    2 C     6      7.154329     31.675263      5.775000   4.0000  12.0107
    115    2 C     6     12.035671     31.675263      5.775000   4.0000  12.0107
    116    1 H     1      4.998191     31.889966      5.775000   1.0000   1.0079
    117    1 H     1     14.191809     31.889966      5.775000   1.0000   1.0079
    118    2 C     6      8.371477     32.379488      5.775000   4.0000  12.0107
    119    2 C     6     10.818523     32.379488      5.775000   4.0000  12.0107
    120    2 C     6     13.230017     32.409733      5.775000   4.0000  12.0107
    121    2 C     6      5.959983     32.409733      5.775000   4.0000  12.0107
    122    2 C     6     13.230017     33.768087      5.775000   4.0000  12.0107
    123    2 C     6      5.959983     33.768087      5.775000   4.0000  12.0107
    124    2 C     6     10.818523     33.798333      5.775000   4.0000  12.0107
    125    2 C     6      8.371477     33.798333      5.775000   4.0000  12.0107
    126    1 H     1     14.191809     34.287855      5.775000   1.0000   1.0079
    127    1 H     1      4.998191     34.287855      5.775000   1.0000   1.0079
    128    2 C     6      7.154329     34.502558      5.775000   4.0000  12.0107
    129    2 C     6     12.035671     34.502558      5.775000   4.0000  12.0107
    130    2 C     6      9.595000     34.511518      5.775000   4.0000  12.0107
    131    2 C     6      9.595000     35.930363      5.775000   4.0000  12.0107
    132    2 C     6     12.035671     35.939323      5.775000   4.0000  12.0107
    133    2 C     6      7.154329     35.939323      5.775000   4.0000  12.0107
    134    1 H     1      4.998191     36.154026      5.775000   1.0000   1.0079
    135    1 H     1     14.191809     36.154026      5.775000   1.0000   1.0079
    136    2 C     6      8.371477     36.643548      5.775000   4.0000  12.0107
    137    2 C     6     10.818523     36.643548      5.775000   4.0000  12.0107
    138    2 C     6      5.959983     36.673793      5.775000   4.0000  12.0107
    139    2 C     6     13.230017     36.673793      5.775000   4.0000  12.0107
    140    2 C     6     13.230017     38.032147      5.775000   4.0000  12.0107
    141    2 C     6      5.959983     38.032147      5.775000   4.0000  12.0107
    142    2 C     6      8.371477     38.062393      5.775000   4.0000  12.0107
    143    2 C     6     10.818523     38.062393      5.775000   4.0000  12.0107
    144    1 H     1     14.191809     38.551915      5.775000   1.0000   1.0079
    145    1 H     1      4.998191     38.551915      5.775000   1.0000   1.0079
    146    2 C     6     12.035671     38.766618      5.775000   4.0000  12.0107
    147    2 C     6      7.154329     38.766618      5.775000   4.0000  12.0107
    148    2 C     6      9.595000     38.775577      5.775000   4.0000  12.0107
    149    2 C     6      9.595000     40.194422      5.775000   4.0000  12.0107
    150    2 C     6     12.035671     40.203382      5.775000   4.0000  12.0107
    151    2 C     6      7.154329     40.203382      5.775000   4.0000  12.0107
    152    1 H     1     14.191809     40.418085      5.775000   1.0000   1.0079
    153    1 H     1      4.998191     40.418085      5.775000   1.0000   1.0079
    154    2 C     6      8.371477     40.907607      5.775000   4.0000  12.0107
    155    2 C     6     10.818523     40.907607      5.775000   4.0000  12.0107
    156    2 C     6     13.230017     40.937853      5.775000   4.0000  12.0107
    157    2 C     6      5.959983     40.937853      5.775000   4.0000  12.0107
    158    2 C     6     13.230017     42.296207      5.775000   4.0000  12.0107
    159    2 C     6      5.959983     42.296207      5.775000   4.0000  12.0107
    160    2 C     6     10.818523     42.326452      5.775000   4.0000  12.0107
    161    2 C     6      8.371477     42.326452      5.775000   4.0000  12.0107
    162    1 H     1      4.998191     42.815974      5.775000   1.0000   1.0079
    163    1 H     1     14.191809     42.815974      5.775000   1.0000   1.0079
    164    2 C     6     12.035671     43.030677      5.775000   4.0000  12.0107
    165    2 C     6      7.154329     43.030677      5.775000   4.0000  12.0107
    166    2 C     6      9.595000     43.039637      5.775000   4.0000  12.0107
    167    2 C     6      9.595000     44.458482      5.775000   4.0000  12.0107
    168    2 C     6      7.154329     44.467442      5.775000   4.0000  12.0107
    169    2 C     6     12.035671     44.467442      5.775000   4.0000  12.0107
    170    1 H     1     14.191809     44.682145      5.775000   1.0000   1.0079
    171    1 H     1      4.998191     44.682145      5.775000   1.0000   1.0079
    172    2 C     6     10.818523     45.171667      5.775000   4.0000  12.0107
    173    2 C     6      8.371477     45.171667      5.775000   4.0000  12.0107
    174    2 C     6     13.230017     45.201913      5.775000   4.0000  12.0107
    175    2 C     6      5.959983     45.201913      5.775000   4.0000  12.0107
    176    2 C     6     13.230017     46.560267      5.775000   4.0000  12.0107
    177    2 C     6      5.959983     46.560267      5.775000   4.0000  12.0107
    178    2 C     6      8.371477     46.590512      5.775000   4.0000  12.0107
    179    2 C     6     10.818523     46.590512      5.775000   4.0000  12.0107
    180    1 H     1      4.998191     47.080034      5.775000   1.0000   1.0079
    181    1 H     1     14.191809     47.080034      5.775000   1.0000   1.0079
    182    2 C     6     12.035671     47.294737      5.775000   4.0000  12.0107
    183    2 C     6      7.154329     47.294737      5.775000   4.0000  12.0107
    184    2 C     6      9.595000     47.303697      5.775000   4.0000  12.0107
    185    2 C     6      9.595000     48.722542      5.775000   4.0000  12.0107
    186    2 C     6      7.154329     48.731502      5.775000   4.0000  12.0107
    187    2 C     6     12.035671     48.731502      5.775000   4.0000  12.0107
    188    1 H     1     14.191809     48.946205      5.775000   1.0000   1.0079
    189    1 H     1      4.998191     48.946205      5.775000   1.0000   1.0079
    190    2 C     6     10.818523     49.435727      5.775000   4.0000  12.0107
    191    2 C     6      8.371477     49.435727      5.775000   4.0000  12.0107
    192    2 C     6      5.959983     49.465972      5.775000   4.0000  12.0107
    193    2 C     6     13.230017     49.465972      5.775000   4.0000  12.0107
    194    2 C     6     13.230017     50.824327      5.775000   4.0000  12.0107
    195    2 C     6      5.959983     50.824327      5.775000   4.0000  12.0107
    196    2 C     6     10.818523     50.854572      5.775000   4.0000  12.0107
    197    2 C     6      8.371477     50.854572      5.775000   4.0000  12.0107
    198    1 H     1     14.191809     51.344094      5.775000   1.0000   1.0079
    199    1 H     1      4.998191     51.344094      5.775000   1.0000   1.0079
    200    2 C     6      7.154329     51.558797      5.775000   4.0000  12.0107
    201    2 C     6     12.035671     51.558797      5.775000   4.0000  12.0107
    202    2 C     6      9.595000     51.567757      5.775000   4.0000  12.0107
    203    2 C     6      9.595000     52.986602      5.775000   4.0000  12.0107
    204    2 C     6     12.035671     52.995562      5.775000   4.0000  12.0107
    205    2 C     6      7.154329     52.995562      5.775000   4.0000  12.0107
    206    1 H     1      4.998191     53.210265      5.775000   1.0000   1.0079
    207    1 H     1     14.191809     53.210265      5.775000   1.0000   1.0079
    208    2 C     6     10.818523     53.699787      5.775000   4.0000  12.0107
    209    2 C     6      8.371477     53.699787      5.775000   4.0000  12.0107
    210    2 C     6     13.230017     53.730032      5.775000   4.0000  12.0107
    211    2 C     6      5.959983     53.730032      5.775000   4.0000  12.0107
    212    2 C     6     13.230017     55.088386      5.775000   4.0000  12.0107
    213    2 C     6      5.959983     55.088386      5.775000   4.0000  12.0107
    214    2 C     6     10.818523     55.118632      5.775000   4.0000  12.0107
    215    2 C     6      8.371477     55.118632      5.775000   4.0000  12.0107
    216    1 H     1      4.998191     55.608154      5.775000   1.0000   1.0079
    217    1 H     1     14.191809     55.608154      5.775000   1.0000   1.0079
    218    2 C     6      7.154329     55.822857      5.775000   4.0000  12.0107
    219    2 C     6     12.035671     55.822857      5.775000   4.0000  12.0107
    220    2 C     6      9.595000     55.831817      5.775000   4.0000  12.0107
    221    2 C     6      9.595000     57.250662      5.775000   4.0000  12.0107
    222    2 C     6      7.154329     57.259621      5.775000   4.0000  12.0107
    223    2 C     6     12.035671     57.259621      5.775000   4.0000  12.0107
    224    1 H     1      4.998191     57.474324      5.775000   1.0000   1.0079
    225    1 H     1     14.191809     57.474324      5.775000   1.0000   1.0079
    226    2 C     6      8.371477     57.963846      5.775000   4.0000  12.0107
    227    2 C     6     10.818523     57.963846      5.775000   4.0000  12.0107
    228    2 C     6     13.230017     57.994092      5.775000   4.0000  12.0107
    229    2 C     6      5.959983     57.994092      5.775000   4.0000  12.0107
    230    2 C     6      5.959983     59.352446      5.775000   4.0000  12.0107
    231    2 C     6     13.230017     59.352446      5.775000   4.0000  12.0107
    232    2 C     6     10.818523     59.382691      5.775000   4.0000  12.0107
    233    2 C     6      8.371477     59.382691      5.775000   4.0000  12.0107
    234    1 H     1     14.191809     59.872213      5.775000   1.0000   1.0079
    235    1 H     1      4.998191     59.872213      5.775000   1.0000   1.0079
    236    2 C     6     12.035671     60.086916      5.775000   4.0000  12.0107
    237    2 C     6      7.154329     60.086916      5.775000   4.0000  12.0107
    238    2 C     6      9.595000     60.095876      5.775000   4.0000  12.0107
    239    2 C     6      9.595000     61.514721      5.775000   4.0000  12.0107
    240    2 C     6      7.154329     61.523681      5.775000   4.0000  12.0107
    241    2 C     6     12.035671     61.523681      5.775000   4.0000  12.0107
    242    1 H     1     14.191809     61.738384      5.775000   1.0000   1.0079
    243    1 H     1      4.998191     61.738384      5.775000   1.0000   1.0079
    244    2 C     6      8.371477     62.227906      5.775000   4.0000  12.0107
    245    2 C     6     10.818523     62.227906      5.775000   4.0000  12.0107
    246    2 C     6     13.230017     62.258152      5.775000   4.0000  12.0107
    247    2 C     6      5.959983     62.258152      5.775000   4.0000  12.0107
    248    2 C     6     13.230017     63.616506      5.775000   4.0000  12.0107
    249    2 C     6      5.959983     63.616506      5.775000   4.0000  12.0107
    250    2 C     6     10.818523     63.646751      5.775000   4.0000  12.0107
    251    2 C     6      8.371477     63.646751      5.775000   4.0000  12.0107
    252    1 H     1     14.191809     64.136273      5.775000   1.0000   1.0079
    253    1 H     1      4.998191     64.136273      5.775000   1.0000   1.0079
    254    2 C     6     12.035671     64.350976      5.775000   4.0000  12.0107
    255    2 C     6      7.154329     64.350976      5.775000   4.0000  12.0107
    256    2 C     6      9.595000     64.359936      5.775000   4.0000  12.0107
    257    2 C     6      9.595000     65.778781      5.775000   4.0000  12.0107
    258    2 C     6     12.035671     65.787741      5.775000   4.0000  12.0107
    259    2 C     6      7.154329     65.787741      5.775000   4.0000  12.0107
    260    1 H     1     14.191809     66.002444      5.775000   1.0000   1.0079
    261    1 H     1      4.998191     66.002444      5.775000   1.0000   1.0079
    262    2 C     6     10.818523     66.491966      5.775000   4.0000  12.0107
    263    2 C     6      8.371477     66.491966      5.775000   4.0000  12.0107
    264    2 C     6     13.230017     66.522211      5.775000   4.0000  12.0107
    265    2 C     6      5.959983     66.522211      5.775000   4.0000  12.0107
    266    2 C     6      5.959983     67.880566      5.775000   4.0000  12.0107
    267    2 C     6     13.230017     67.880566      5.775000   4.0000  12.0107
    268    2 C     6     10.818523     67.910811      5.775000   4.0000  12.0107
    269    2 C     6      8.371477     67.910811      5.775000   4.0000  12.0107
    270    1 H     1     14.191809     68.400333      5.775000   1.0000   1.0079
    271    1 H     1      4.998191     68.400333      5.775000   1.0000   1.0079
    272    2 C     6      7.154329     68.615036      5.775000   4.0000  12.0107
    273    2 C     6     12.035671     68.615036      5.775000   4.0000  12.0107
    274    2 C     6      9.595000     68.623996      5.775000   4.0000  12.0107
    275    2 C     6      9.595000     70.042841      5.775000   4.0000  12.0107
    276    2 C     6      7.154329     70.051801      5.775000   4.0000  12.0107
    277    2 C     6     12.035671     70.051801      5.775000   4.0000  12.0107
    278    1 H     1      4.998191     70.266504      5.775000   1.0000   1.0079
    279    1 H     1     14.191809     70.266504      5.775000   1.0000   1.0079
    280    2 C     6     10.818523     70.756026      5.775000   4.0000  12.0107
    281    2 C     6      8.371477     70.756026      5.775000   4.0000  12.0107
    282    2 C     6      5.959983     70.786271      5.775000   4.0000  12.0107
    283    2 C     6     13.230017     70.786271      5.775000   4.0000  12.0107
    284    2 C     6      5.959983     72.144625      5.775000   4.0000  12.0107
    285    2 C     6     13.230017     72.144625      5.775000   4.0000  12.0107
    286    2 C     6      8.371477     72.174871      5.775000   4.0000  12.0107
    287    2 C     6     10.818523     72.174871      5.775000   4.0000  12.0107
    288    1 H     1     14.191809     72.664393      5.775000   1.0000   1.0079
    289    1 H     1      4.998191     72.664393      5.775000   1.0000   1.0079
    290    2 C     6      7.154329     72.879096      5.775000   4.0000  12.0107
    291    2 C     6     12.035671     72.879096      5.775000   4.0000  12.0107
    292    2 C     6      9.595000     72.888056      5.775000   4.0000  12.0107
    293    1 H     1      9.595000     73.661100      6.548044   1.0000   1.0079
    294    1 H     1      9.595000     73.661100      5.001956   1.0000   1.0079
    295    1 H     1     12.035671     73.972346      5.775000   1.0000   1.0079
    296    1 H     1      7.154329     73.972346      5.775000   1.0000   1.0079



 SCF PARAMETERS         Density guess:                                   RESTART
                        --------------------------------------------------------
                        max_scf:                                             300
                        max_scf_history:                                       0
                        max_diis:                                              4
                        --------------------------------------------------------
                        eps_scf:                                        1.00E-07
                        eps_scf_history:                                0.00E+00
                        eps_diis:                                       1.00E-01
                        eps_eigval:                                     1.00E-05
                        --------------------------------------------------------
                        level_shift [a.u.]:                             0.000000
                        SCF update method:                                MIXING
                        added MOs                                       100    0
                        --------------------------------------------------------
                        Mixing method:                            BROYDEN_MIXING
                                                charge density mixing in g-space
                        --------------------------------------------------------
                        No outer SCF

 PW_GRID| Information for grid number                                          2
 PW_GRID| Grid distributed over                                    32 processors
 PW_GRID| Real space group dimensions                                    32    1
 PW_GRID| the grid is blocked:                                                NO
 PW_GRID| Cutoff [a.u.]                                                    300.0
 PW_GRID| spherical cutoff:                                                   NO
 PW_GRID|   Bounds   1           -144     143                Points:         288
 PW_GRID|   Bounds   2           -594     593                Points:        1188
 PW_GRID|   Bounds   3            -90      89                Points:         180
 PW_GRID| Volume element (a.u.^3)  0.1918E-02     Volume (a.u.^3)    118117.8964
 PW_GRID| Grid span                                                    FULLSPACE
 PW_GRID|   Distribution                         Average         Max         Min
 PW_GRID|   G-Vectors                          1924560.0     1924704     1924416
 PW_GRID|   G-Rays                                6682.5        6683        6682
 PW_GRID|   Real Space Points                  1924560.0     1924560     1924560

 PW_GRID| Information for grid number                                          3
 PW_GRID| Number of the reference grid                                         2
 PW_GRID| Grid distributed over                                    32 processors
 PW_GRID| Real space group dimensions                                    32    1
 PW_GRID| the grid is blocked:                                                NO
 PW_GRID| Cutoff [a.u.]                                                    100.0
 PW_GRID| spherical cutoff:                                                   NO
 PW_GRID|   Bounds   1            -90      89                Points:         180
 PW_GRID|   Bounds   2           -337     337                Points:         675
 PW_GRID|   Bounds   3            -50      49                Points:         100
 PW_GRID| Volume element (a.u.^3)  0.9722E-02     Volume (a.u.^3)    118117.8964
 PW_GRID| Grid span                                                    FULLSPACE
 PW_GRID|   Distribution                         Average         Max         Min
 PW_GRID|   G-Vectors                           379687.5      381060      378360
 PW_GRID|   G-Rays                                2109.4        2117        2102
 PW_GRID|   Real Space Points                   379687.5      405000      337500

 PW_GRID| Information for grid number                                          4
 PW_GRID| Number of the reference grid                                         2
 PW_GRID| Grid distributed over                                    32 processors
 PW_GRID| Real space group dimensions                                    32    1
 PW_GRID| the grid is blocked:                                                NO
 PW_GRID| Cutoff [a.u.]                                                     33.3
 PW_GRID| spherical cutoff:                                                   NO
 PW_GRID|   Bounds   1            -48      47                Points:          96
 PW_GRID|   Bounds   2           -200     199                Points:         400
 PW_GRID|   Bounds   3            -30      29                Points:          60
 PW_GRID| Volume element (a.u.^3)  0.5127E-01     Volume (a.u.^3)    118117.8964
 PW_GRID| Grid span                                                    FULLSPACE
 PW_GRID|   Distribution                         Average         Max         Min
 PW_GRID|   G-Vectors                            72000.0       72192       71808
 PW_GRID|   G-Rays                                 750.0         752         748
 PW_GRID|   Real Space Points                    72000.0       72000       72000

 PW_GRID| Information for grid number                                          5
 PW_GRID| Number of the reference grid                                         2
 PW_GRID| Grid distributed over                                    32 processors
 PW_GRID| Real space group dimensions                                    32    1
 PW_GRID| the grid is blocked:                                                NO
 PW_GRID| Cutoff [a.u.]                                                     11.1
 PW_GRID| spherical cutoff:                                                   NO
 PW_GRID|   Bounds   1            -30      29                Points:          60
 PW_GRID|   Bounds   2           -112     112                Points:         225
 PW_GRID|   Bounds   3            -18      17                Points:          36
 PW_GRID| Volume element (a.u.^3)  0.2430         Volume (a.u.^3)    118117.8964
 PW_GRID| Grid span                                                    FULLSPACE
 PW_GRID|   Distribution                         Average         Max         Min
 PW_GRID|   G-Vectors                            15187.5       15600       14640
 PW_GRID|   G-Rays                                 253.1         260         244
 PW_GRID|   Real Space Points                    15187.5       16200        8100

 POISSON| Solver                                             MULTIPOLE (Bloechl)
 POISSON| Periodicity                                                       NONE

 RS_GRID| Information for grid number                                          2
 RS_GRID|   Bounds   1           -144     143                Points:         288
 RS_GRID|   Bounds   2           -594     593                Points:        1188
 RS_GRID|   Bounds   3            -90      89                Points:         180
 RS_GRID| Real space distribution over                                  2 groups
 RS_GRID| Real space distribution along direction                              1
 RS_GRID| Border size                                                         30
 RS_GRID| Real space distribution over                                 16 groups
 RS_GRID| Real space distribution along direction                              2
 RS_GRID| Border size                                                         30
 RS_GRID|   Distribution                         Average         Max         Min
 RS_GRID|   Planes                                 204.0         204         204
 RS_GRID|   Distribution                         Average         Max         Min
 RS_GRID|   Planes                                 134.2         135         134

 RS_GRID| Information for grid number                                          3
 RS_GRID|   Bounds   1            -90      89                Points:         180
 RS_GRID|   Bounds   2           -337     337                Points:         675
 RS_GRID|   Bounds   3            -50      49                Points:         100
 RS_GRID| Real space distribution over                                  2 groups
 RS_GRID| Real space distribution along direction                              1
 RS_GRID| Border size                                                         33
 RS_GRID| Real space distribution over                                 16 groups
 RS_GRID| Real space distribution along direction                              2
 RS_GRID| Border size                                                         33
 RS_GRID|   Distribution                         Average         Max         Min
 RS_GRID|   Planes                                 156.0         156         156
 RS_GRID|   Distribution                         Average         Max         Min
 RS_GRID|   Planes                                 108.2         109         108

 RS_GRID| Information for grid number                                          4
 RS_GRID|   Bounds   1            -48      47                Points:          96
 RS_GRID|   Bounds   2           -200     199                Points:         400
 RS_GRID|   Bounds   3            -30      29                Points:          60
 RS_GRID| Real space fully replicated
 RS_GRID| Group size                                                           1

 RS_GRID| Information for grid number                                          5
 RS_GRID|   Bounds   1            -30      29                Points:          60
 RS_GRID|   Bounds   2           -112     112                Points:         225
 RS_GRID|   Bounds   3            -18      17                Points:          36
 RS_GRID| Real space fully replicated
 RS_GRID| Group size                                                           1

 *** WARNING in emd/rt_bse_linearized.F:131 :: Linearized RT-BSE is under ***
 *** active development. Make sure you understand the method and validate ***
 *** results before using it for production calculations.                 ***


 Extrapolation method: initial_guess

 Number of electrons:                                                        968
 Number of occupied orbitals:                                                484
 Number of molecular orbitals:                                               584

 Number of orbital functions:                                               3344
 Number of independent orbital functions:                                   3344


 SCF WAVEFUNCTION OPTIMIZATION

  Step     Update method      Time    Convergence         Total energy    Change
  ------------------------------------------------------------------------------
  Decoupling Energy:                                              -0.0002378639
     1 NoMix/Diag. 0.40E+00    1.8     0.00000018     -1317.0840969395 -1.32E+03
  Decoupling Energy:                                              -0.0002378639
     2 Broy./Diag. 0.40E+00    1.9     0.00000011     -1317.0841014536 -4.51E-06
  Decoupling Energy:                                              -0.0002378642
     3 Broy./Diag. 0.40E+00    1.9     0.00000002     -1317.0840992055  2.25E-06

  *** SCF run converged in     3 steps ***


  Electronic density on regular grids:       -968.0000000000       -0.0000000000
  Core density on regular grids:              968.0000000000       -0.0000000000
  Total charge density on r-space grids:       -0.0000000000
  Total charge density g-space grids:          -0.0000000000

  Overlap energy of the core charge distribution:               0.00007702240928
  Self energy of the core charge distribution:              -3088.59590063400356
  Core Hamiltonian energy:                                    978.79853838678514
  Hartree energy:                                            1210.91655467466694
  Exchange-correlation energy:                               -418.20336865532374

  Total energy:                                             -1317.08409920546637

 !-----------------------------------------------------------------------------!
                     Mulliken Population Analysis

 #  Atom  Element  Kind  Atomic population                           Net charge
       1     H        1          0.782617                              0.217383
       2     H        1          0.782617                              0.217383
       3     H        1          0.700654                              0.299346
       4     H        1          0.700654                              0.299346
       5     C        2          4.611884                             -0.611884
       6     C        2          4.196839                             -0.196839
       7     C        2          4.196839                             -0.196839
       8     H        1          0.768201                              0.231799
       9     H        1          0.768201                              0.231799
      10     C        2          4.048267                             -0.048267
      11     C        2          4.048267                             -0.048267
      12     C        2          4.248581                             -0.248581
      13     C        2          4.248581                             -0.248581
      14     C        2          4.162336                             -0.162336
      15     C        2          4.162336                             -0.162336
      16     C        2          3.962010                              0.037990
      17     C        2          3.962010                              0.037990
      18     H        1          0.812776                              0.187224
      19     H        1          0.812776                              0.187224
      20     C        2          4.085834                             -0.085834
      21     C        2          4.085834                             -0.085834
      22     C        2          3.968827                              0.031173
      23     C        2          3.962982                              0.037018
      24     C        2          4.056532                             -0.056532
      25     C        2          4.056532                             -0.056532
      26     H        1          0.801194                              0.198806
      27     H        1          0.801194                              0.198806
      28     C        2          3.984159                              0.015841
      29     C        2          3.984159                              0.015841
      30     C        2          4.144618                             -0.144618
      31     C        2          4.144618                             -0.144618
      32     C        2          4.131809                             -0.131809
      33     C        2          4.131809                             -0.131809
      34     C        2          3.980886                              0.019114
      35     C        2          3.980886                              0.019114
      36     H        1          0.815988                              0.184012
      37     H        1          0.815988                              0.184012
      38     C        2          4.070792                             -0.070792
      39     C        2          4.070792                             -0.070792
      40     C        2          3.970840                              0.029160
      41     C        2          3.970484                              0.029516
      42     C        2          4.067578                             -0.067578
      43     C        2          4.067578                             -0.067578
      44     H        1          0.811117                              0.188883
      45     H        1          0.811117                              0.188883
      46     C        2          3.988224                              0.011776
      47     C        2          3.988224                              0.011776
      48     C        2          4.139882                             -0.139882
      49     C        2          4.139882                             -0.139882
      50     C        2          4.135725                             -0.135725
      51     C        2          4.135725                             -0.135725
      52     C        2          3.987287                              0.012713
      53     C        2          3.987287                              0.012713
      54     H        1          0.814387                              0.185613
      55     H        1          0.814387                              0.185613
      56     C        2          4.072956                             -0.072956
      57     C        2          4.072956                             -0.072956
      58     C        2          3.973514                              0.026486
      59     C        2          3.972595                              0.027405
      60     C        2          4.071023                             -0.071023
      61     C        2          4.071023                             -0.071023
      62     H        1          0.813348                              0.186652
      63     H        1          0.813348                              0.186652
      64     C        2          3.988817                              0.011183
      65     C        2          3.988817                              0.011183
      66     C        2          4.139809                             -0.139809
      67     C        2          4.139809                             -0.139809
      68     C        2          4.138595                             -0.138595
      69     C        2          4.138595                             -0.138595
      70     C        2          3.987959                              0.012041
      71     C        2          3.987959                              0.012041
      72     H        1          0.814028                              0.185972
      73     H        1          0.814028                              0.185972
      74     C        2          4.072452                             -0.072452
      75     C        2          4.072452                             -0.072452
      76     C        2          3.973123                              0.026877
      77     C        2          3.972723                              0.027277
      78     C        2          4.071714                             -0.071714
      79     C        2          4.071714                             -0.071714
      80     H        1          0.813938                              0.186062
      81     H        1          0.813938                              0.186062
      82     C        2          3.988221                              0.011779
      83     C        2          3.988221                              0.011779
      84     C        2          4.139697                             -0.139697
      85     C        2          4.139697                             -0.139697
      86     C        2          4.139802                             -0.139802
      87     C        2          4.139802                             -0.139802
      88     C        2          3.988026                              0.011974
      89     C        2          3.988026                              0.011974
      90     H        1          0.813919                              0.186081
      91     H        1          0.813919                              0.186081
      92     C        2          4.071996                             -0.071996
      93     C        2          4.071996                             -0.071996
      94     C        2          3.972741                              0.027259
      95     C        2          3.972750                              0.027250
      96     C        2          4.071888                             -0.071888
      97     C        2          4.071888                             -0.071888
      98     H        1          0.814080                              0.185920
      99     H        1          0.814080                              0.185920
     100     C        2          3.987947                              0.012053
     101     C        2          3.987947                              0.012053
     102     C        2          4.139742                             -0.139742
     103     C        2          4.139742                             -0.139742
     104     C        2          4.140118                             -0.140118
     105     C        2          4.140118                             -0.140118
     106     C        2          3.987985                              0.012015
     107     C        2          3.987985                              0.012015
     108     H        1          0.813940                              0.186060
     109     H        1          0.813940                              0.186060
     110     C        2          4.071823                             -0.071823
     111     C        2          4.071823                             -0.071823
     112     C        2          3.972627                              0.027373
     113     C        2          3.972730                              0.027270
     114     C        2          4.071889                             -0.071889
     115     C        2          4.071889                             -0.071889
     116     H        1          0.814075                              0.185925
     117     H        1          0.814075                              0.185925
     118     C        2          3.987876                              0.012124
     119     C        2          3.987876                              0.012124
     120     C        2          4.139827                             -0.139827
     121     C        2          4.139827                             -0.139827
     122     C        2          4.140109                             -0.140109
     123     C        2          4.140109                             -0.140109
     124     C        2          3.987947                              0.012053
     125     C        2          3.987947                              0.012053
     126     H        1          0.813977                              0.186023
     127     H        1          0.813977                              0.186023
     128     C        2          4.071795                             -0.071795
     129     C        2          4.071795                             -0.071795
     130     C        2          3.972632                              0.027368
     131     C        2          3.972704                              0.027296
     132     C        2          4.071857                             -0.071857
     133     C        2          4.071857                             -0.071857
     134     H        1          0.814045                              0.185955
     135     H        1          0.814045                              0.185955
     136     C        2          3.987887                              0.012113
     137     C        2          3.987887                              0.012113
     138     C        2          4.139921                             -0.139921
     139     C        2          4.139921                             -0.139921
     140     C        2          4.140020                             -0.140020
     141     C        2          4.140020                             -0.140020
     142     C        2          3.987916                              0.012084
     143     C        2          3.987916                              0.012084
     144     H        1          0.814012                              0.185988
     145     H        1          0.814012                              0.185988
     146     C        2          4.071820                             -0.071820
     147     C        2          4.071820                             -0.071820
     148     C        2          3.972668                              0.027332
     149     C        2          3.972668                              0.027332
     150     C        2          4.071820                             -0.071820
     151     C        2          4.071820                             -0.071820
     152     H        1          0.814012                              0.185988
     153     H        1          0.814012                              0.185988
     154     C        2          3.987916                              0.012084
     155     C        2          3.987916                              0.012084
     156     C        2          4.140020                             -0.140020
     157     C        2          4.140020                             -0.140020
     158     C        2          4.139921                             -0.139921
     159     C        2          4.139921                             -0.139921
     160     C        2          3.987887                              0.012113
     161     C        2          3.987887                              0.012113
     162     H        1          0.814045                              0.185955
     163     H        1          0.814045                              0.185955
     164     C        2          4.071857                             -0.071857
     165     C        2          4.071857                             -0.071857
     166     C        2          3.972704                              0.027296
     167     C        2          3.972632                              0.027368
     168     C        2          4.071795                             -0.071795
     169     C        2          4.071795                             -0.071795
     170     H        1          0.813977                              0.186023
     171     H        1          0.813977                              0.186023
     172     C        2          3.987947                              0.012053
     173     C        2          3.987947                              0.012053
     174     C        2          4.140109                             -0.140109
     175     C        2          4.140109                             -0.140109
     176     C        2          4.139827                             -0.139827
     177     C        2          4.139827                             -0.139827
     178     C        2          3.987876                              0.012124
     179     C        2          3.987876                              0.012124
     180     H        1          0.814075                              0.185925
     181     H        1          0.814075                              0.185925
     182     C        2          4.071889                             -0.071889
     183     C        2          4.071889                             -0.071889
     184     C        2          3.972730                              0.027270
     185     C        2          3.972627                              0.027373
     186     C        2          4.071823                             -0.071823
     187     C        2          4.071823                             -0.071823
     188     H        1          0.813940                              0.186060
     189     H        1          0.813940                              0.186060
     190     C        2          3.987985                              0.012015
     191     C        2          3.987985                              0.012015
     192     C        2          4.140118                             -0.140118
     193     C        2          4.140118                             -0.140118
     194     C        2          4.139742                             -0.139742
     195     C        2          4.139742                             -0.139742
     196     C        2          3.987947                              0.012053
     197     C        2          3.987947                              0.012053
     198     H        1          0.814080                              0.185920
     199     H        1          0.814080                              0.185920
     200     C        2          4.071888                             -0.071888
     201     C        2          4.071888                             -0.071888
     202     C        2          3.972750                              0.027250
     203     C        2          3.972741                              0.027259
     204     C        2          4.071996                             -0.071996
     205     C        2          4.071996                             -0.071996
     206     H        1          0.813919                              0.186081
     207     H        1          0.813919                              0.186081
     208     C        2          3.988026                              0.011974
     209     C        2          3.988026                              0.011974
     210     C        2          4.139802                             -0.139802
     211     C        2          4.139802                             -0.139802
     212     C        2          4.139697                             -0.139697
     213     C        2          4.139697                             -0.139697
     214     C        2          3.988221                              0.011779
     215     C        2          3.988221                              0.011779
     216     H        1          0.813938                              0.186062
     217     H        1          0.813938                              0.186062
     218     C        2          4.071714                             -0.071714
     219     C        2          4.071714                             -0.071714
     220     C        2          3.972723                              0.027277
     221     C        2          3.973123                              0.026877
     222     C        2          4.072452                             -0.072452
     223     C        2          4.072452                             -0.072452
     224     H        1          0.814028                              0.185972
     225     H        1          0.814028                              0.185972
     226     C        2          3.987959                              0.012041
     227     C        2          3.987959                              0.012041
     228     C        2          4.138595                             -0.138595
     229     C        2          4.138595                             -0.138595
     230     C        2          4.139809                             -0.139809
     231     C        2          4.139809                             -0.139809
     232     C        2          3.988817                              0.011183
     233     C        2          3.988817                              0.011183
     234     H        1          0.813348                              0.186652
     235     H        1          0.813348                              0.186652
     236     C        2          4.071023                             -0.071023
     237     C        2          4.071023                             -0.071023
     238     C        2          3.972595                              0.027405
     239     C        2          3.973514                              0.026486
     240     C        2          4.072956                             -0.072956
     241     C        2          4.072956                             -0.072956
     242     H        1          0.814387                              0.185613
     243     H        1          0.814387                              0.185613
     244     C        2          3.987287                              0.012713
     245     C        2          3.987287                              0.012713
     246     C        2          4.135725                             -0.135725
     247     C        2          4.135725                             -0.135725
     248     C        2          4.139882                             -0.139882
     249     C        2          4.139882                             -0.139882
     250     C        2          3.988224                              0.011776
     251     C        2          3.988224                              0.011776
     252     H        1          0.811117                              0.188883
     253     H        1          0.811117                              0.188883
     254     C        2          4.067578                             -0.067578
     255     C        2          4.067578                             -0.067578
     256     C        2          3.970484                              0.029516
     257     C        2          3.970840                              0.029160
     258     C        2          4.070792                             -0.070792
     259     C        2          4.070792                             -0.070792
     260     H        1          0.815988                              0.184012
     261     H        1          0.815988                              0.184012
     262     C        2          3.980886                              0.019114
     263     C        2          3.980886                              0.019114
     264     C        2          4.131809                             -0.131809
     265     C        2          4.131809                             -0.131809
     266     C        2          4.144618                             -0.144618
     267     C        2          4.144618                             -0.144618
     268     C        2          3.984159                              0.015841
     269     C        2          3.984159                              0.015841
     270     H        1          0.801194                              0.198806
     271     H        1          0.801194                              0.198806
     272     C        2          4.056532                             -0.056532
     273     C        2          4.056532                             -0.056532
     274     C        2          3.962982                              0.037018
     275     C        2          3.968827                              0.031173
     276     C        2          4.085834                             -0.085834
     277     C        2          4.085834                             -0.085834
     278     H        1          0.812776                              0.187224
     279     H        1          0.812776                              0.187224
     280     C        2          3.962010                              0.037990
     281     C        2          3.962010                              0.037990
     282     C        2          4.162336                             -0.162336
     283     C        2          4.162336                             -0.162336
     284     C        2          4.248581                             -0.248581
     285     C        2          4.248581                             -0.248581
     286     C        2          4.048267                             -0.048267
     287     C        2          4.048267                             -0.048267
     288     H        1          0.768201                              0.231799
     289     H        1          0.768201                              0.231799
     290     C        2          4.196839                             -0.196839
     291     C        2          4.196839                             -0.196839
     292     C        2          4.611884                             -0.611884
     293     H        1          0.700654                              0.299346
     294     H        1          0.700654                              0.299346
     295     H        1          0.782617                              0.217383
     296     H        1          0.782617                              0.217383
 # Total charge                            968.000000                 -0.000000

 !-----------------------------------------------------------------------------!

 !-----------------------------------------------------------------------------!
                           Hirshfeld Charges

  #Atom  Element  Kind  Ref Charge     Population                    Net charge
      1       H      1       1.000          0.549                         0.451
      2       H      1       1.000          0.549                         0.451
      3       H      1       1.000          0.552                         0.448
      4       H      1       1.000          0.552                         0.448
      5       C      2       4.000          4.781                        -0.781
      6       C      2       4.000          4.469                        -0.469
      7       C      2       4.000          4.469                        -0.469
      8       H      1       1.000          0.551                         0.449
      9       H      1       1.000          0.551                         0.449
     10       C      2       4.000          4.006                        -0.006
     11       C      2       4.000          4.006                        -0.006
     12       C      2       4.000          4.446                        -0.446
     13       C      2       4.000          4.446                        -0.446
     14       C      2       4.000          4.454                        -0.454
     15       C      2       4.000          4.454                        -0.454
     16       C      2       4.000          4.007                        -0.007
     17       C      2       4.000          4.007                        -0.007
     18       H      1       1.000          0.556                         0.444
     19       H      1       1.000          0.556                         0.444
     20       C      2       4.000          3.996                         0.004
     21       C      2       4.000          3.996                         0.004
     22       C      2       4.000          4.004                        -0.004
     23       C      2       4.000          4.005                        -0.005
     24       C      2       4.000          3.998                         0.002
     25       C      2       4.000          3.998                         0.002
     26       H      1       1.000          0.554                         0.446
     27       H      1       1.000          0.554                         0.446
     28       C      2       4.000          4.001                        -0.001
     29       C      2       4.000          4.001                        -0.001
     30       C      2       4.000          4.446                        -0.446
     31       C      2       4.000          4.446                        -0.446
     32       C      2       4.000          4.445                        -0.445
     33       C      2       4.000          4.445                        -0.445
     34       C      2       4.000          3.999                         0.001
     35       C      2       4.000          3.999                         0.001
     36       H      1       1.000          0.555                         0.445
     37       H      1       1.000          0.555                         0.445
     38       C      2       4.000          3.998                         0.002
     39       C      2       4.000          3.998                         0.002
     40       C      2       4.000          4.002                        -0.002
     41       C      2       4.000          4.002                        -0.002
     42       C      2       4.000          3.998                         0.002
     43       C      2       4.000          3.998                         0.002
     44       H      1       1.000          0.555                         0.445
     45       H      1       1.000          0.555                         0.445
     46       C      2       4.000          4.001                        -0.001
     47       C      2       4.000          4.001                        -0.001
     48       C      2       4.000          4.445                        -0.445
     49       C      2       4.000          4.445                        -0.445
     50       C      2       4.000          4.445                        -0.445
     51       C      2       4.000          4.445                        -0.445
     52       C      2       4.000          4.000                        -0.000
     53       C      2       4.000          4.000                        -0.000
     54       H      1       1.000          0.555                         0.445
     55       H      1       1.000          0.555                         0.445
     56       C      2       4.000          3.998                         0.002
     57       C      2       4.000          3.998                         0.002
     58       C      2       4.000          4.001                        -0.001
     59       C      2       4.000          4.001                        -0.001
     60       C      2       4.000          3.998                         0.002
     61       C      2       4.000          3.998                         0.002
     62       H      1       1.000          0.555                         0.445
     63       H      1       1.000          0.555                         0.445
     64       C      2       4.000          4.000                        -0.000
     65       C      2       4.000          4.000                        -0.000
     66       C      2       4.000          4.445                        -0.445
     67       C      2       4.000          4.445                        -0.445
     68       C      2       4.000          4.445                        -0.445
     69       C      2       4.000          4.445                        -0.445
     70       C      2       4.000          4.000                        -0.000
     71       C      2       4.000          4.000                        -0.000
     72       H      1       1.000          0.555                         0.445
     73       H      1       1.000          0.555                         0.445
     74       C      2       4.000          3.998                         0.002
     75       C      2       4.000          3.998                         0.002
     76       C      2       4.000          4.001                        -0.001
     77       C      2       4.000          4.001                        -0.001
     78       C      2       4.000          3.998                         0.002
     79       C      2       4.000          3.998                         0.002
     80       H      1       1.000          0.555                         0.445
     81       H      1       1.000          0.555                         0.445
     82       C      2       4.000          4.000                        -0.000
     83       C      2       4.000          4.000                        -0.000
     84       C      2       4.000          4.445                        -0.445
     85       C      2       4.000          4.445                        -0.445
     86       C      2       4.000          4.445                        -0.445
     87       C      2       4.000          4.445                        -0.445
     88       C      2       4.000          4.000                        -0.000
     89       C      2       4.000          4.000                        -0.000
     90       H      1       1.000          0.555                         0.445
     91       H      1       1.000          0.555                         0.445
     92       C      2       4.000          3.998                         0.002
     93       C      2       4.000          3.998                         0.002
     94       C      2       4.000          4.001                        -0.001
     95       C      2       4.000          4.001                        -0.001
     96       C      2       4.000          3.998                         0.002
     97       C      2       4.000          3.998                         0.002
     98       H      1       1.000          0.555                         0.445
     99       H      1       1.000          0.555                         0.445
    100       C      2       4.000          4.000                        -0.000
    101       C      2       4.000          4.000                        -0.000
    102       C      2       4.000          4.445                        -0.445
    103       C      2       4.000          4.445                        -0.445
    104       C      2       4.000          4.445                        -0.445
    105       C      2       4.000          4.445                        -0.445
    106       C      2       4.000          4.000                        -0.000
    107       C      2       4.000          4.000                        -0.000
    108       H      1       1.000          0.555                         0.445
    109       H      1       1.000          0.555                         0.445
    110       C      2       4.000          3.998                         0.002
    111       C      2       4.000          3.998                         0.002
    112       C      2       4.000          4.001                        -0.001
    113       C      2       4.000          4.001                        -0.001
    114       C      2       4.000          3.998                         0.002
    115       C      2       4.000          3.998                         0.002
    116       H      1       1.000          0.555                         0.445
    117       H      1       1.000          0.555                         0.445
    118       C      2       4.000          4.000                        -0.000
    119       C      2       4.000          4.000                        -0.000
    120       C      2       4.000          4.445                        -0.445
    121       C      2       4.000          4.445                        -0.445
    122       C      2       4.000          4.445                        -0.445
    123       C      2       4.000          4.445                        -0.445
    124       C      2       4.000          4.000                        -0.000
    125       C      2       4.000          4.000                        -0.000
    126       H      1       1.000          0.555                         0.445
    127       H      1       1.000          0.555                         0.445
    128       C      2       4.000          3.998                         0.002
    129       C      2       4.000          3.998                         0.002
    130       C      2       4.000          4.001                        -0.001
    131       C      2       4.000          4.001                        -0.001
    132       C      2       4.000          3.998                         0.002
    133       C      2       4.000          3.998                         0.002
    134       H      1       1.000          0.555                         0.445
    135       H      1       1.000          0.555                         0.445
    136       C      2       4.000          4.000                        -0.000
    137       C      2       4.000          4.000                        -0.000
    138       C      2       4.000          4.445                        -0.445
    139       C      2       4.000          4.445                        -0.445
    140       C      2       4.000          4.445                        -0.445
    141       C      2       4.000          4.445                        -0.445
    142       C      2       4.000          4.000                        -0.000
    143       C      2       4.000          4.000                        -0.000
    144       H      1       1.000          0.555                         0.445
    145       H      1       1.000          0.555                         0.445
    146       C      2       4.000          3.998                         0.002
    147       C      2       4.000          3.998                         0.002
    148       C      2       4.000          4.001                        -0.001
    149       C      2       4.000          4.001                        -0.001
    150       C      2       4.000          3.998                         0.002
    151       C      2       4.000          3.998                         0.002
    152       H      1       1.000          0.555                         0.445
    153       H      1       1.000          0.555                         0.445
    154       C      2       4.000          4.000                        -0.000
    155       C      2       4.000          4.000                        -0.000
    156       C      2       4.000          4.445                        -0.445
    157       C      2       4.000          4.445                        -0.445
    158       C      2       4.000          4.445                        -0.445
    159       C      2       4.000          4.445                        -0.445
    160       C      2       4.000          4.000                        -0.000
    161       C      2       4.000          4.000                        -0.000
    162       H      1       1.000          0.555                         0.445
    163       H      1       1.000          0.555                         0.445
    164       C      2       4.000          3.998                         0.002
    165       C      2       4.000          3.998                         0.002
    166       C      2       4.000          4.001                        -0.001
    167       C      2       4.000          4.001                        -0.001
    168       C      2       4.000          3.998                         0.002
    169       C      2       4.000          3.998                         0.002
    170       H      1       1.000          0.555                         0.445
    171       H      1       1.000          0.555                         0.445
    172       C      2       4.000          4.000                        -0.000
    173       C      2       4.000          4.000                        -0.000
    174       C      2       4.000          4.445                        -0.445
    175       C      2       4.000          4.445                        -0.445
    176       C      2       4.000          4.445                        -0.445
    177       C      2       4.000          4.445                        -0.445
    178       C      2       4.000          4.000                        -0.000
    179       C      2       4.000          4.000                        -0.000
    180       H      1       1.000          0.555                         0.445
    181       H      1       1.000          0.555                         0.445
    182       C      2       4.000          3.998                         0.002
    183       C      2       4.000          3.998                         0.002
    184       C      2       4.000          4.001                        -0.001
    185       C      2       4.000          4.001                        -0.001
    186       C      2       4.000          3.998                         0.002
    187       C      2       4.000          3.998                         0.002
    188       H      1       1.000          0.555                         0.445
    189       H      1       1.000          0.555                         0.445
    190       C      2       4.000          4.000                        -0.000
    191       C      2       4.000          4.000                        -0.000
    192       C      2       4.000          4.445                        -0.445
    193       C      2       4.000          4.445                        -0.445
    194       C      2       4.000          4.445                        -0.445
    195       C      2       4.000          4.445                        -0.445
    196       C      2       4.000          4.000                        -0.000
    197       C      2       4.000          4.000                        -0.000
    198       H      1       1.000          0.555                         0.445
    199       H      1       1.000          0.555                         0.445
    200       C      2       4.000          3.998                         0.002
    201       C      2       4.000          3.998                         0.002
    202       C      2       4.000          4.001                        -0.001
    203       C      2       4.000          4.001                        -0.001
    204       C      2       4.000          3.998                         0.002
    205       C      2       4.000          3.998                         0.002
    206       H      1       1.000          0.555                         0.445
    207       H      1       1.000          0.555                         0.445
    208       C      2       4.000          4.000                        -0.000
    209       C      2       4.000          4.000                        -0.000
    210       C      2       4.000          4.445                        -0.445
    211       C      2       4.000          4.445                        -0.445
    212       C      2       4.000          4.445                        -0.445
    213       C      2       4.000          4.445                        -0.445
    214       C      2       4.000          4.000                        -0.000
    215       C      2       4.000          4.000                        -0.000
    216       H      1       1.000          0.555                         0.445
    217       H      1       1.000          0.555                         0.445
    218       C      2       4.000          3.998                         0.002
    219       C      2       4.000          3.998                         0.002
    220       C      2       4.000          4.001                        -0.001
    221       C      2       4.000          4.001                        -0.001
    222       C      2       4.000          3.998                         0.002
    223       C      2       4.000          3.998                         0.002
    224       H      1       1.000          0.555                         0.445
    225       H      1       1.000          0.555                         0.445
    226       C      2       4.000          4.000                        -0.000
    227       C      2       4.000          4.000                        -0.000
    228       C      2       4.000          4.445                        -0.445
    229       C      2       4.000          4.445                        -0.445
    230       C      2       4.000          4.445                        -0.445
    231       C      2       4.000          4.445                        -0.445
    232       C      2       4.000          4.000                        -0.000
    233       C      2       4.000          4.000                        -0.000
    234       H      1       1.000          0.555                         0.445
    235       H      1       1.000          0.555                         0.445
    236       C      2       4.000          3.998                         0.002
    237       C      2       4.000          3.998                         0.002
    238       C      2       4.000          4.001                        -0.001
    239       C      2       4.000          4.001                        -0.001
    240       C      2       4.000          3.998                         0.002
    241       C      2       4.000          3.998                         0.002
    242       H      1       1.000          0.555                         0.445
    243       H      1       1.000          0.555                         0.445
    244       C      2       4.000          4.000                        -0.000
    245       C      2       4.000          4.000                        -0.000
    246       C      2       4.000          4.445                        -0.445
    247       C      2       4.000          4.445                        -0.445
    248       C      2       4.000          4.445                        -0.445
    249       C      2       4.000          4.445                        -0.445
    250       C      2       4.000          4.001                        -0.001
    251       C      2       4.000          4.001                        -0.001
    252       H      1       1.000          0.555                         0.445
    253       H      1       1.000          0.555                         0.445
    254       C      2       4.000          3.998                         0.002
    255       C      2       4.000          3.998                         0.002
    256       C      2       4.000          4.002                        -0.002
    257       C      2       4.000          4.002                        -0.002
    258       C      2       4.000          3.998                         0.002
    259       C      2       4.000          3.998                         0.002
    260       H      1       1.000          0.555                         0.445
    261       H      1       1.000          0.555                         0.445
    262       C      2       4.000          3.999                         0.001
    263       C      2       4.000          3.999                         0.001
    264       C      2       4.000          4.445                        -0.445
    265       C      2       4.000          4.445                        -0.445
    266       C      2       4.000          4.446                        -0.446
    267       C      2       4.000          4.446                        -0.446
    268       C      2       4.000          4.001                        -0.001
    269       C      2       4.000          4.001                        -0.001
    270       H      1       1.000          0.554                         0.446
    271       H      1       1.000          0.554                         0.446
    272       C      2       4.000          3.998                         0.002
    273       C      2       4.000          3.998                         0.002
    274       C      2       4.000          4.005                        -0.005
    275       C      2       4.000          4.004                        -0.004
    276       C      2       4.000          3.996                         0.004
    277       C      2       4.000          3.996                         0.004
    278       H      1       1.000          0.556                         0.444
    279       H      1       1.000          0.556                         0.444
    280       C      2       4.000          4.007                        -0.007
    281       C      2       4.000          4.007                        -0.007
    282       C      2       4.000          4.454                        -0.454
    283       C      2       4.000          4.454                        -0.454
    284       C      2       4.000          4.446                        -0.446
    285       C      2       4.000          4.446                        -0.446
    286       C      2       4.000          4.006                        -0.006
    287       C      2       4.000          4.006                        -0.006
    288       H      1       1.000          0.551                         0.449
    289       H      1       1.000          0.551                         0.449
    290       C      2       4.000          4.469                        -0.469
    291       C      2       4.000          4.469                        -0.469
    292       C      2       4.000          4.781                        -0.781
    293       H      1       1.000          0.552                         0.448
    294       H      1       1.000          0.552                         0.448
    295       H      1       1.000          0.549                         0.451
    296       H      1       1.000          0.549                         0.451

  Total Charge                                                            0.173
 !-----------------------------------------------------------------------------!
  
 -------------------------------------------------------------------------------
 -                                                                             -
 -                          BANDSTRUCTURE CALCULATION                          -
 -                                                                             -
 -------------------------------------------------------------------------------
  
 Number of occupied molecular orbitals (MOs) = Number of occupied bands      484
 Number of unoccupied (= virtual) MOs = Number of unoccupied bands          2860
 Number of Gaussian basis functions for MOs                                 3344
  
 -------------------------------------------------------------------------------
 -                                                                             -
 -                                GW CALCULATION                               -
 -                                                                             -
 -------------------------------------------------------------------------------
  
 Input: Number of time/freq. points                                           30
 Input: ω_max for fitting Σ(iω) (eV)                                        10.0
 Input: Filter threshold for sparse tensor operations                    1.0E-10
 Input: Apply Hedin shift                                                      F
 Detected: Available memory per MPI process                             108.4 GB
 
 Input: RI-RS Tikhonov regularization                                   1.00E-08
 Input: AO grid hard cutoff radius                                        7.00 Å
 Input: MPI ranks per atom in Z_lP solve                                      -1
 Input: Keep sparsity in χ/G/W panels                                          T
 Input: GW flavour                                                          G0W0
 
 Input: RI-RS grid optimization activated                                      T
 Input: Element: H, number of points per atom:                                27
 Input: Element: C, number of points per atom:                                67
 Input: Cutoff radius for atomic clusters                                  3.0 Å
 Input: Maximum grid optimization iterations                                 200
 
 Cutoff radius for the truncated Coulomb operator in RI metric:            7.0 Å
 Regularization parameter of RI                                          0.0E+00
 Regularization parameter of minimax grids                               1.0E-06
  
 Number of auxiliary Gaussian basis functions for χ, ε, W                   7080
  Decoupling Energy:                                              -0.0002378668
 
 SCF direct band gap (eV)                                                   1.56
 Max. SCF eigval diff. (eV)                                               247.06
 E-Range for minimax grid                                                 158.70
 Number of Padé parameters for analytic continuation:                         16
 
 RI-RS basis radii (Å):
     Kind  Elem     r_AO (Å)     r_RI (Å)
        1    H        11.3560        5.9118
        2    C         9.5975        5.7974
 
 Started RI-RS grid optimization
 RI-RS grid optimization completed, execution time:                      548.7 s
 Normalized 3C error:                                                    1.7E-06
 Maximum absolute 3C error:                                              2.0E-02
 Total grid points used for RI-RS:                                         16952
 
 RI-RS grid row-blocks of Φ_μ(r_l)                                           744
 RI-RS grid points per block (max)                                            32
 
 Percentage of non-zero matrix elements in Φ_μ(r_l)                      20.59 %
 
 RI-RS memory estimate per MPI process:
   Available memory per process (system)                               131.97 GB
   Required for Z_lP (dense upper bound; actual is sparser)              0.03 GB
   Required for χ, W, Σ panels (peak per panel step)                     0.29 GB
   Required for Z_lP solve peak (D_local+φ, worst-case atom)             0.43 GB
   Worst-case local-grid number of grid points:                             6078
   Worst-case memory D_local:                                            0.30 GB
 
 Started computing Z_lP
 Per-kind maximum RI-RS sphere cutoff (Å):
   Kind   cutoff (Å)
     H        12.9118
     C        12.7974
 
 Computed Z_lP (MPI rank 0) for atom          1 / 10,    Execution time    1.2 s
 Computed Z_lP (MPI rank 0) for atom          2 / 10,    Execution time    1.1 s
 Computed Z_lP (MPI rank 0) for atom          3 / 10,    Execution time    1.1 s
 Computed Z_lP (MPI rank 0) for atom          4 / 10,    Execution time    1.1 s
 Computed Z_lP (MPI rank 0) for atom          5 / 10,    Execution time    0.7 s
 Computed Z_lP (MPI rank 0) for atom          6 / 10,    Execution time    0.7 s
 Computed Z_lP (MPI rank 0) for atom          7 / 10,    Execution time    0.8 s
 Computed Z_lP (MPI rank 0) for atom          8 / 10,    Execution time    0.6 s
 Computed Z_lP (MPI rank 0) for atom          9 / 10,    Execution time    0.4 s
 Computed Z_lP (MPI rank 0) for atom         10 / 10,    Execution time    0.2 s
 Computed Z_lP (all MPI ranks) for all atoms,            Execution time    8.2 s

 Memory per MPI process after computing Z_lP:
 Available memory per MPI process                              131.9 GB
 Used memory per MPI process                                     3.1 GB
 Number of batches for χ, Σ matrices                                           1
 
 Percentage of non-zero matrix elements in Z_lP                          36.64 %
 Percentage of non-zero matrix elements in G_ll', χ_ll', W_ll'          100.00 %
 Percentage of non-zero matrix elements in χ_PQ for time point 1        100.00 %
 
 Computed χ(iτ,k=0) for time point            1 / 30,    Execution time    1.3 s
 Computed χ(iτ,k=0) for time point            2 / 30,    Execution time    1.1 s
 Computed χ(iτ,k=0) for time point            3 / 30,    Execution time    1.1 s
 Computed χ(iτ,k=0) for time point            4 / 30,    Execution time    1.1 s
 Computed χ(iτ,k=0) for time point            5 / 30,    Execution time    1.0 s
 Computed χ(iτ,k=0) for time point            6 / 30,    Execution time    1.0 s
 Computed χ(iτ,k=0) for time point            7 / 30,    Execution time    1.0 s
 Computed χ(iτ,k=0) for time point            8 / 30,    Execution time    1.0 s
 Computed χ(iτ,k=0) for time point            9 / 30,    Execution time    0.9 s
 Computed χ(iτ,k=0) for time point           10 / 30,    Execution time    0.9 s
 Computed χ(iτ,k=0) for time point           11 / 30,    Execution time    0.9 s
 Computed χ(iτ,k=0) for time point           12 / 30,    Execution time    1.0 s
 Computed χ(iτ,k=0) for time point           13 / 30,    Execution time    1.0 s
 Computed χ(iτ,k=0) for time point           14 / 30,    Execution time    1.0 s
 Computed χ(iτ,k=0) for time point           15 / 30,    Execution time    1.0 s
 Computed χ(iτ,k=0) for time point           16 / 30,    Execution time    1.0 s
 Computed χ(iτ,k=0) for time point           17 / 30,    Execution time    0.9 s
 Computed χ(iτ,k=0) for time point           18 / 30,    Execution time    0.9 s
 Computed χ(iτ,k=0) for time point           19 / 30,    Execution time    0.9 s
 Computed χ(iτ,k=0) for time point           20 / 30,    Execution time    0.8 s
 Computed χ(iτ,k=0) for time point           21 / 30,    Execution time    0.8 s
 Computed χ(iτ,k=0) for time point           22 / 30,    Execution time    0.8 s
 Computed χ(iτ,k=0) for time point           23 / 30,    Execution time    0.9 s
 Computed χ(iτ,k=0) for time point           24 / 30,    Execution time    0.8 s
 Computed χ(iτ,k=0) for time point           25 / 30,    Execution time    0.8 s
 Computed χ(iτ,k=0) for time point           26 / 30,    Execution time    0.7 s
 Computed χ(iτ,k=0) for time point           27 / 30,    Execution time    0.3 s
 Computed χ(iτ,k=0) for time point           28 / 30,    Execution time    0.2 s
 Computed χ(iτ,k=0) for time point           29 / 30,    Execution time    0.3 s
 Computed χ(iτ,k=0) for time point           30 / 30,    Execution time    0.3 s
 
 Computed W(iτ),                                         Execution time   49.1 s
 Computed W(0),                                          Execution time    0.3 s
 
 Computed Σ^x(k=0),                                      Execution time    1.6 s
 
 Computed Σ^c(iτ) for time point              1 / 30,    Execution time    1.6 s
 Computed Σ^c(iτ) for time point              2 / 30,    Execution time    1.5 s
 Computed Σ^c(iτ) for time point              3 / 30,    Execution time    1.4 s
 Computed Σ^c(iτ) for time point              4 / 30,    Execution time    1.5 s
 Computed Σ^c(iτ) for time point              5 / 30,    Execution time    1.5 s
 Computed Σ^c(iτ) for time point              6 / 30,    Execution time    1.4 s
 Computed Σ^c(iτ) for time point              7 / 30,    Execution time    1.5 s
 Computed Σ^c(iτ) for time point              8 / 30,    Execution time    1.4 s
 Computed Σ^c(iτ) for time point              9 / 30,    Execution time    1.5 s
 Computed Σ^c(iτ) for time point             10 / 30,    Execution time    1.4 s
 Computed Σ^c(iτ) for time point             11 / 30,    Execution time    1.4 s
 Computed Σ^c(iτ) for time point             12 / 30,    Execution time    1.4 s
 Computed Σ^c(iτ) for time point             13 / 30,    Execution time    1.4 s
 Computed Σ^c(iτ) for time point             14 / 30,    Execution time    1.4 s
 Computed Σ^c(iτ) for time point             15 / 30,    Execution time    1.4 s
 Computed Σ^c(iτ) for time point             16 / 30,    Execution time    1.4 s
 Computed Σ^c(iτ) for time point             17 / 30,    Execution time    1.5 s
 Computed Σ^c(iτ) for time point             18 / 30,    Execution time    1.3 s
 Computed Σ^c(iτ) for time point             19 / 30,    Execution time    1.5 s
 Computed Σ^c(iτ) for time point             20 / 30,    Execution time    1.3 s
 Computed Σ^c(iτ) for time point             21 / 30,    Execution time    1.2 s
 Computed Σ^c(iτ) for time point             22 / 30,    Execution time    1.2 s
 Computed Σ^c(iτ) for time point             23 / 30,    Execution time    1.2 s
 Computed Σ^c(iτ) for time point             24 / 30,    Execution time    1.2 s
 Computed Σ^c(iτ) for time point             25 / 30,    Execution time    1.2 s
 Computed Σ^c(iτ) for time point             26 / 30,    Execution time    1.0 s
 Computed Σ^c(iτ) for time point             27 / 30,    Execution time    0.3 s
 Computed Σ^c(iτ) for time point             28 / 30,    Execution time    0.4 s
 Computed Σ^c(iτ) for time point             29 / 30,    Execution time    0.3 s
 Computed Σ^c(iτ) for time point             30 / 30,    Execution time    0.3 s
 
 SCF valence band maximum (eV):                                           -4.616
 SCF conduction band minimum (eV):                                        -3.059
 SCF indirect band gap (eV):                                               1.557
 SCF direct band gap (eV):                                                 1.557
 
 G0W0 valence band maximum (eV):                                          -5.056
 G0W0 conduction band minimum (eV):                                       -1.753
 G0W0 indirect band gap (eV):                                              3.302
 G0W0 direct band gap (eV):                                                3.302
 
 Hartree-Fock with SCF orbitals valence band maximum (eV):                -5.167
 Hartree-Fock with SCF orbitals conduction band minimum (eV)               0.500
 Hartree-Fock with SCF orbitals indirect band gap (eV):                    5.667
 Hartree-Fock with SCF orbitals direct band gap (eV):                      5.667

 ENERGY| Total FORCE_EVAL ( QS ) energy [hartree]          -1317.084099205466373

 *** HINT in emd/rt_bse_linearized.F:440 :: ENFORCE_MAX_DT enabled. ***
 *** Resetting TIMESTEP to          69.9056 as and STEPS to 2861.   ***

 
 /-----------------------------------------------------------------------------\
 |                                                                             |
 |              Linearized Real Time Bethe-Salpeter Propagation                |
 |                                                                             |
 \-----------------------------------------------------------------------------/
 
 Apply delta pulse                                                             T

 Use Tamm-Dancoff                                                              T
 TDA first-peak shift active                                                   F

 Estimated maximum timestep within stability region [as]:                69.9102
 Applied timestep [as]:                                                  69.9056
 Number of propagation steps:                                               2861
 Total propagation time [as]:                                        200000.0000
 Estimated FFT frequency resolution without interpolation [eV]:         0.020678
 Nyquist frequency [eV]:                                               29.580361
 Estimated maximum oscillation frequency (gap-based) [eV]:             26.629925
 GW flavor for computing GW eigenvalues used in RT-BSE:                     G0W0
 Active-window occupied energy cutoff [eV]:                               10.000
 Active-window virtual energy cutoff [eV]:                                10.000
 First active occupied MO index:                                             160
 Last active virtual MO index:                                               977
 Number of active MOs:                                                       818
 Spin 1 first active MO, E - E_HOMO (KS) [eV]:                            -9.983
 Spin 1 last active MO, E - E_LUMO (KS) [eV]:                              9.992
 Spin 1 first active MO, E - E_HOMO (QP) [eV]:                            -9.999
 Spin 1 last active MO, E - E_LUMO (QP) [eV]:                             10.302
 Precomputed RT-BSE RI-RS V_aux kernel,                  Execution time    0.6 s
 
 W0CUT| Cutoff radius, negative = off [angstrom]                         50.0000
 W0CUT| Retained block fraction                                         0.922545
 W0CUT| Retained Frobenius norm                                   1.84987177E+07
 Precomputed RT-BSE RI-RS W0_grid kernel,                Execution time    1.0 s
 
 RTBSE| Applying delta pulse
 RTBSE| Delta pulse elements (a.u.) :   -0.0000E+000  -0.1000E-002  -0.0000E+000
 RTBSE| Metric difference after delta kick                       0.60823960E-002
 RTBSE| Estimated runtime for propagation [s]                          12967.239
 RTBSE|
 RTBSE| Simulation step   Step time [s]                          Electron number
 RTBSE|               0           4.532                               0.650E+003
 RTBSE|               1           4.290                               0.650E+003
 RTBSE|               2           4.058                               0.650E+003
 RTBSE|               3           3.913                               0.650E+003
 RTBSE|               4           4.049                               0.650E+003
 RTBSE|               5           3.990                               0.650E+003
 RTBSE|               6           4.030                               0.650E+003
 RTBSE|               7           3.943                               0.650E+003
 RTBSE|               8           3.971                               0.650E+003
 RTBSE|               9           4.028                               0.650E+003
 RTBSE|              10           3.877                               0.650E+003
 RTBSE|              11           3.931                               0.650E+003
 RTBSE|              12           3.861                               0.650E+003
 RTBSE|              13           3.918                               0.650E+003
 RTBSE|              14           3.901                               0.650E+003
 RTBSE|              15           3.901                               0.650E+003
 RTBSE|              16           4.101                               0.650E+003
 RTBSE|              17           6.583                               0.650E+003
 RTBSE|              18           3.793                               0.650E+003
 RTBSE|              19           3.849                               0.650E+003
 RTBSE|              20           3.834                               0.650E+003
 RTBSE|              21           3.856                               0.650E+003
 RTBSE|              22           3.812                               0.650E+003
 RTBSE|              23           3.862                               0.650E+003
 RTBSE|              24           3.835                               0.650E+003
 RTBSE|              25           3.859                               0.650E+003
 RTBSE|              26           3.849                               0.650E+003
 RTBSE|              27           3.804                               0.650E+003
 RTBSE|              28           3.863                               0.650E+003
 RTBSE|              29           3.900                               0.650E+003
 RTBSE|              30           3.804                               0.650E+003
 RTBSE|              31           4.046                               0.650E+003
 RTBSE|              32           3.842                               0.650E+003
 RTBSE|              33           3.937                               0.650E+003
 RTBSE|              34           3.812                               0.650E+003
 RTBSE|              35           3.833                               0.650E+003
 RTBSE|              36           3.850                               0.650E+003
 RTBSE|              37           3.789                               0.650E+003
 RTBSE|              38           3.851                               0.650E+003
 RTBSE|              39           3.936                               0.650E+003
 RTBSE|              40           3.832                               0.650E+003
 RTBSE|              41           3.796                               0.650E+003
 RTBSE|              42           3.807                               0.650E+003
 RTBSE|              43           3.793                               0.650E+003
 RTBSE|              44           3.876                               0.650E+003
 RTBSE|              45           3.815                               0.650E+003
 RTBSE|              46           3.823                               0.650E+003
 RTBSE|              47           3.957                               0.650E+003
 RTBSE|              48           3.881                               0.650E+003
 RTBSE|              49           3.797                               0.650E+003
 RTBSE|              50           3.841                               0.650E+003
 RTBSE|              51           3.862                               0.650E+003
 RTBSE|              52           3.863                               0.650E+003
 RTBSE|              53           3.804                               0.650E+003
 RTBSE|              54           3.896                               0.650E+003
 RTBSE|              55           3.931                               0.650E+003
 RTBSE|              56           3.850                               0.650E+003
 RTBSE|              57           3.800                               0.650E+003
 RTBSE|              58           3.802                               0.650E+003
 RTBSE|              59           3.822                               0.650E+003
 RTBSE|              60           3.834                               0.650E+003
 RTBSE|              61           3.776                               0.650E+003
 RTBSE|              62           3.934                               0.650E+003
 RTBSE|              63           3.903                               0.650E+003
 RTBSE|              64           3.769                               0.650E+003
 RTBSE|              65           3.789                               0.650E+003
 RTBSE|              66           3.870                               0.650E+003
 RTBSE|              67           3.812                               0.650E+003
 RTBSE|              68           3.788                               0.650E+003
 RTBSE|              69           3.760                               0.650E+003
 RTBSE|              70           3.922                               0.650E+003
 RTBSE|              71           3.782                               0.650E+003
 RTBSE|              72           3.733                               0.650E+003
 RTBSE|              73           3.779                               0.650E+003
 RTBSE|              74           3.804                               0.650E+003
 RTBSE|              75           3.826                               0.650E+003
 RTBSE|              76           3.785                               0.650E+003
 RTBSE|              77           3.741                               0.650E+003
 RTBSE|              78           3.945                               0.650E+003
 RTBSE|              79           3.780                               0.650E+003
 RTBSE|              80           3.738                               0.650E+003
 RTBSE|              81           3.764                               0.650E+003
 RTBSE|              82           3.785                               0.650E+003
 RTBSE|              83           3.802                               0.650E+003
 RTBSE|              84           3.764                               0.650E+003
 RTBSE|              85           3.736                               0.650E+003
 RTBSE|              86           3.871                               0.650E+003
 RTBSE|              87           3.774                               0.650E+003
 RTBSE|              88           3.827                               0.650E+003
 RTBSE|              89           3.805                               0.650E+003
 RTBSE|              90           3.780                               0.650E+003
 RTBSE|              91           3.808                               0.650E+003
 RTBSE|              92           3.801                               0.650E+003
 RTBSE|              93           3.836                               0.650E+003
 RTBSE|              94           3.881                               0.650E+003
 RTBSE|              95           3.782                               0.650E+003
 RTBSE|              96           3.770                               0.650E+003
 RTBSE|              97           3.775                               0.650E+003
 RTBSE|              98           3.830                               0.650E+003
 RTBSE|              99           3.791                               0.650E+003
 RTBSE|             100           3.746                               0.650E+003
 RTBSE|             101           3.796                               0.650E+003
 RTBSE|             102           3.913                               0.650E+003
 RTBSE|             103           3.762                               0.650E+003
 RTBSE|             104           3.761                               0.650E+003
 RTBSE|             105           3.764                               0.650E+003
 RTBSE|             106           3.780                               0.650E+003
 RTBSE|             107           3.816                               0.650E+003
 RTBSE|             108           3.814                               0.650E+003
 RTBSE|             109           3.871                               0.650E+003
 RTBSE|             110           3.828                               0.650E+003
 RTBSE|             111           3.778                               0.650E+003
 RTBSE|             112           3.752                               0.650E+003
 RTBSE|             113           3.786                               0.650E+003
 RTBSE|             114           3.848                               0.650E+003
 RTBSE|             115           3.767                               0.650E+003
 RTBSE|             116           3.747                               0.650E+003
 RTBSE|             117           3.877                               0.650E+003
 RTBSE|             118           3.883                               0.650E+003
 RTBSE|             119           3.732                               0.650E+003
 RTBSE|             120           3.733                               0.650E+003
 RTBSE|             121           3.758                               0.650E+003
 RTBSE|             122           3.786                               0.650E+003
 RTBSE|             123           3.762                               0.650E+003
 RTBSE|             124           3.773                               0.650E+003
 RTBSE|             125           3.871                               0.650E+003
 RTBSE|             126           3.833                               0.650E+003
 RTBSE|             127           3.746                               0.650E+003
 RTBSE|             128           3.719                               0.650E+003
 RTBSE|             129           3.834                               0.650E+003
 RTBSE|             130           3.795                               0.650E+003
 RTBSE|             131           3.759                               0.650E+003
 RTBSE|             132           3.794                               0.650E+003
 RTBSE|             133           3.935                               0.650E+003
 RTBSE|             134           3.872                               0.650E+003
 RTBSE|             135           3.810                               0.650E+003
 RTBSE|             136           3.814                               0.650E+003
 RTBSE|             137           3.853                               0.650E+003
 RTBSE|             138           3.887                               0.650E+003
 RTBSE|             139           3.844                               0.650E+003
 RTBSE|             140           3.847                               0.650E+003
 RTBSE|             141           4.045                               0.650E+003
 RTBSE|             142           3.857                               0.650E+003
 RTBSE|             143           3.807                               0.650E+003
 RTBSE|             144           3.878                               0.650E+003
 RTBSE|             145           3.896                               0.650E+003
 RTBSE|             146           3.839                               0.650E+003
 RTBSE|             147           3.787                               0.650E+003
 RTBSE|             148           3.838                               0.650E+003
 RTBSE|             149           3.920                               0.650E+003
 RTBSE|             150           3.748                               0.650E+003
 RTBSE|             151           3.751                               0.650E+003
 RTBSE|             152           3.738                               0.650E+003
 RTBSE|             153           3.754                               0.650E+003
 RTBSE|             154           3.782                               0.650E+003
 RTBSE|             155           3.876                               0.650E+003
 RTBSE|             156           3.887                               0.650E+003
 RTBSE|             157           3.867                               0.650E+003
 RTBSE|             158           3.805                               0.650E+003
 RTBSE|             159           3.764                               0.650E+003
 RTBSE|             160           3.788                               0.650E+003
 RTBSE|             161           3.844                               0.650E+003
 RTBSE|             162           3.781                               0.650E+003
 RTBSE|             163           3.742                               0.650E+003
 RTBSE|             164           3.866                               0.650E+003
 RTBSE|             165           3.848                               0.650E+003
 RTBSE|             166           3.733                               0.650E+003
 RTBSE|             167           3.738                               0.650E+003
 RTBSE|             168           3.718                               0.650E+003
 RTBSE|             169           3.768                               0.650E+003
 RTBSE|             170           3.784                               0.650E+003
 RTBSE|             171           3.802                               0.650E+003
 RTBSE|             172           3.887                               0.650E+003
 RTBSE|             173           3.794                               0.650E+003
 RTBSE|             174           3.722                               0.650E+003
 RTBSE|             175           3.726                               0.650E+003
 RTBSE|             176           3.752                               0.650E+003
 RTBSE|             177           3.836                               0.650E+003
 RTBSE|             178           3.754                               0.650E+003
 RTBSE|             179           3.726                               0.650E+003
 RTBSE|             180           3.880                               0.650E+003
 RTBSE|             181           3.769                               0.650E+003
 RTBSE|             182           3.724                               0.650E+003
 RTBSE|             183           3.712                               0.650E+003
 RTBSE|             184           3.718                               0.650E+003
 RTBSE|             185           3.798                               0.650E+003
 RTBSE|             186           3.742                               0.650E+003
 RTBSE|             187           3.775                               0.650E+003
 RTBSE|             188           3.937                               0.650E+003
 RTBSE|             189           3.741                               0.650E+003
 RTBSE|             190           3.729                               0.650E+003
 RTBSE|             191           3.731                               0.650E+003
 RTBSE|             192           3.788                               0.650E+003
 RTBSE|             193           3.805                               0.650E+003
 RTBSE|             194           3.762                               0.650E+003
 RTBSE|             195           3.717                               0.650E+003
 RTBSE|             196           3.915                               0.650E+003
 RTBSE|             197           3.792                               0.650E+003
 RTBSE|             198           3.723                               0.650E+003
 RTBSE|             199           3.728                               0.650E+003
 RTBSE|             200           3.725                               0.650E+003
 RTBSE|             201           3.809                               0.650E+003
 RTBSE|             202           3.792                               0.650E+003
 RTBSE|             203           3.719                               0.650E+003
 RTBSE|             204           3.893                               0.650E+003
 RTBSE|             205           3.750                               0.650E+003
 RTBSE|             206           3.716                               0.650E+003
 RTBSE|             207           3.746                               0.650E+003
 RTBSE|             208           3.820                               0.650E+003
 RTBSE|             209           3.801                               0.650E+003
 RTBSE|             210           3.753                               0.650E+003
 RTBSE|             211           3.732                               0.650E+003
 RTBSE|             212           3.894                               0.650E+003
 RTBSE|             213           3.792                               0.650E+003
 RTBSE|             214           3.739                               0.650E+003
 RTBSE|             215           3.741                               0.650E+003
 RTBSE|             216           3.741                               0.650E+003
 RTBSE|             217           3.811                               0.650E+003
 RTBSE|             218           3.838                               0.650E+003
 RTBSE|             219           3.774                               0.650E+003
 RTBSE|             220           3.968                               0.650E+003
 RTBSE|             221           3.751                               0.650E+003
 RTBSE|             222           3.743                               0.650E+003
 RTBSE|             223           3.769                               0.650E+003
 RTBSE|             224           3.802                               0.650E+003
 RTBSE|             225           3.786                               0.650E+003
 RTBSE|             226           3.731                               0.650E+003
 RTBSE|             227           3.765                               0.650E+003
 RTBSE|             228           3.871                               0.650E+003
 RTBSE|             229           3.740                               0.650E+003
 RTBSE|             230           3.714                               0.650E+003
 RTBSE|             231           3.752                               0.650E+003
 RTBSE|             232           3.750                               0.650E+003
 RTBSE|             233           3.794                               0.650E+003
 RTBSE|             234           3.826                               0.650E+003
 RTBSE|             235           3.897                               0.650E+003
 RTBSE|             236           3.923                               0.650E+003
 RTBSE|             237           3.784                               0.650E+003
 RTBSE|             238           3.752                               0.650E+003
 RTBSE|             239           3.798                               0.650E+003
 RTBSE|             240           3.916                               0.650E+003
 RTBSE|             241           3.771                               0.650E+003
 RTBSE|             242           3.770                               0.650E+003
 RTBSE|             243           3.819                               0.650E+003
 RTBSE|             244           3.917                               0.650E+003
 RTBSE|             245           3.797                               0.650E+003
 RTBSE|             246           3.776                               0.650E+003
 RTBSE|             247           3.768                               0.650E+003
 RTBSE|             248           3.810                               0.650E+003
 RTBSE|             249           3.779                               0.650E+003
 RTBSE|             250           3.791                               0.650E+003
 RTBSE|             251           3.936                               0.650E+003
 RTBSE|             252           3.856                               0.650E+003
 RTBSE|             253           3.781                               0.650E+003
 RTBSE|             254           3.778                               0.650E+003
 RTBSE|             255           3.822                               0.650E+003
 RTBSE|             256           3.865                               0.650E+003
 RTBSE|             257           3.785                               0.650E+003
 RTBSE|             258           3.763                               0.650E+003
 RTBSE|             259           4.004                               0.650E+003
 RTBSE|             260           3.787                               0.650E+003
 RTBSE|             261           3.780                               0.650E+003
 RTBSE|             262           3.761                               0.650E+003
 RTBSE|             263           3.760                               0.650E+003
 RTBSE|             264           3.847                               0.650E+003
 RTBSE|             265           3.822                               0.650E+003
 RTBSE|             266           3.762                               0.650E+003
 RTBSE|             267           3.969                               0.650E+003
 RTBSE|             268           3.819                               0.650E+003
 RTBSE|             269           3.735                               0.650E+003
 RTBSE|             270           3.745                               0.650E+003
 RTBSE|             271           3.841                               0.650E+003
 RTBSE|             272           3.830                               0.650E+003
 RTBSE|             273           3.756                               0.650E+003
 RTBSE|             274           3.725                               0.650E+003
 RTBSE|             275           3.941                               0.650E+003
 RTBSE|             276           3.801                               0.650E+003
 RTBSE|             277           3.748                               0.650E+003
 RTBSE|             278           3.715                               0.650E+003
 RTBSE|             279           3.750                               0.650E+003
 RTBSE|             280           6.700                               0.650E+003
 RTBSE|             281           3.802                               0.650E+003
 RTBSE|             282           3.904                               0.650E+003
 RTBSE|             283           3.766                               0.650E+003
 RTBSE|             284           3.709                               0.650E+003
 RTBSE|             285           3.722                               0.650E+003
 RTBSE|             286           3.804                               0.650E+003
 RTBSE|             287           3.766                               0.650E+003
 RTBSE|             288           3.729                               0.650E+003
 RTBSE|             289           3.750                               0.650E+003
 RTBSE|             290           3.887                               0.650E+003
 RTBSE|             291           3.763                               0.650E+003
 RTBSE|             292           3.716                               0.650E+003
 RTBSE|             293           3.709                               0.650E+003
 RTBSE|             294           3.722                               0.650E+003
 RTBSE|             295           3.797                               0.650E+003
 RTBSE|             296           3.814                               0.650E+003
 RTBSE|             297           3.741                               0.650E+003
 RTBSE|             298           4.021                               0.650E+003
 RTBSE|             299           3.716                               0.650E+003
 RTBSE|             300           3.732                               0.650E+003
 RTBSE|             301           3.708                               0.650E+003
 RTBSE|             302           3.838                               0.650E+003
 RTBSE|             303           3.779                               0.650E+003
 RTBSE|             304           3.724                               0.650E+003
 RTBSE|             305           3.725                               0.650E+003
 RTBSE|             306           3.863                               0.650E+003
 RTBSE|             307           3.758                               0.650E+003
 RTBSE|             308           3.698                               0.650E+003
 RTBSE|             309           3.713                               0.650E+003
 RTBSE|             310           3.740                               0.650E+003
 RTBSE|             311           3.779                               0.650E+003
 RTBSE|             312           3.769                               0.650E+003
 RTBSE|             313           3.720                               0.650E+003
 RTBSE|             314           3.912                               0.650E+003
 RTBSE|             315           3.719                               0.650E+003
 RTBSE|             316           3.729                               0.650E+003
 RTBSE|             317           3.729                               0.650E+003
 RTBSE|             318           3.853                               0.650E+003
 RTBSE|             319           3.769                               0.650E+003
 RTBSE|             320           3.703                               0.650E+003
 RTBSE|             321           3.738                               0.650E+003
 RTBSE|             322           3.860                               0.650E+003
 RTBSE|             323           3.754                               0.650E+003
 RTBSE|             324           3.743                               0.650E+003
 RTBSE|             325           3.736                               0.650E+003
 RTBSE|             326           3.759                               0.650E+003
 RTBSE|             327           3.800                               0.650E+003
 RTBSE|             328           3.767                               0.650E+003
 RTBSE|             329           3.815                               0.650E+003
 RTBSE|             330           3.943                               0.650E+003
 RTBSE|             331           3.735                               0.650E+003
 RTBSE|             332           3.726                               0.650E+003
 RTBSE|             333           3.782                               0.650E+003
 RTBSE|             334           3.838                               0.650E+003
 RTBSE|             335           3.814                               0.650E+003
 RTBSE|             336           3.811                               0.650E+003
 RTBSE|             337           3.884                               0.650E+003
 RTBSE|             338           3.874                               0.650E+003
 RTBSE|             339           3.793                               0.650E+003
 RTBSE|             340           3.779                               0.650E+003
 RTBSE|             341           3.780                               0.650E+003
 RTBSE|             342           3.826                               0.650E+003
 RTBSE|             343           3.788                               0.650E+003
 RTBSE|             344           3.843                               0.650E+003
 RTBSE|             345           3.937                               0.650E+003
 RTBSE|             346           3.830                               0.650E+003
 RTBSE|             347           3.781                               0.650E+003
 RTBSE|             348           3.779                               0.650E+003
 RTBSE|             349           3.811                               0.650E+003
 RTBSE|             350           3.814                               0.650E+003
 RTBSE|             351           3.751                               0.650E+003
 RTBSE|             352           3.697                               0.650E+003
 RTBSE|             353           3.922                               0.650E+003
 RTBSE|             354           3.753                               0.650E+003
 RTBSE|             355           3.700                               0.650E+003
 RTBSE|             356           3.695                               0.650E+003
 RTBSE|             357           3.686                               0.650E+003
 RTBSE|             358           3.764                               0.650E+003
 RTBSE|             359           3.719                               0.650E+003
 RTBSE|             360           3.722                               0.650E+003
 RTBSE|             361           3.954                               0.650E+003
 RTBSE|             362           3.756                               0.650E+003
 RTBSE|             363           3.702                               0.650E+003
 RTBSE|             364           3.707                               0.650E+003
 RTBSE|             365           3.739                               0.650E+003
 RTBSE|             366           3.786                               0.650E+003
 RTBSE|             367           3.697                               0.650E+003
 RTBSE|             368           3.675                               0.650E+003
 RTBSE|             369           3.889                               0.650E+003
 RTBSE|             370           3.749                               0.650E+003
 RTBSE|             371           3.667                               0.650E+003
 RTBSE|             372           3.683                               0.650E+003
 RTBSE|             373           3.692                               0.650E+003
 RTBSE|             374           3.746                               0.650E+003
 RTBSE|             375           3.695                               0.650E+003
 RTBSE|             376           3.724                               0.650E+003
 RTBSE|             377           3.952                               0.650E+003
 RTBSE|             378           3.728                               0.650E+003
 RTBSE|             379           3.676                               0.650E+003
 RTBSE|             380           3.698                               0.650E+003
 RTBSE|             381           3.707                               0.650E+003
 RTBSE|             382           3.777                               0.650E+003
 RTBSE|             383           3.706                               0.650E+003
 RTBSE|             384           3.695                               0.650E+003
 RTBSE|             385           3.924                               0.650E+003
 RTBSE|             386           3.751                               0.650E+003
 RTBSE|             387           3.742                               0.650E+003
 RTBSE|             388           3.697                               0.650E+003
 RTBSE|             389           3.736                               0.650E+003
 RTBSE|             390           3.774                               0.650E+003
 RTBSE|             391           3.707                               0.650E+003
 RTBSE|             392           3.787                               0.650E+003
 RTBSE|             393           3.868                               0.650E+003
 RTBSE|             394           3.770                               0.650E+003
 RTBSE|             395           3.702                               0.650E+003
 RTBSE|             396           3.727                               0.650E+003
 RTBSE|             397           3.758                               0.650E+003
 RTBSE|             398           3.850                               0.650E+003
 RTBSE|             399           3.720                               0.650E+003
 RTBSE|             400           3.727                               0.650E+003
 RTBSE|             401           3.827                               0.650E+003
 RTBSE|             402           3.763                               0.650E+003
 RTBSE|             403           3.713                               0.650E+003
 RTBSE|             404           3.697                               0.650E+003
 RTBSE|             405           3.709                               0.650E+003
 RTBSE|             406           3.799                               0.650E+003
 RTBSE|             407           3.715                               0.650E+003
 RTBSE|             408           3.762                               0.650E+003
 RTBSE|             409           3.884                               0.650E+003
 RTBSE|             410           3.749                               0.650E+003
 RTBSE|             411           3.706                               0.650E+003
 RTBSE|             412           3.723                               0.650E+003
 RTBSE|             413           3.753                               0.650E+003
 RTBSE|             414           3.798                               0.650E+003
 RTBSE|             415           3.711                               0.650E+003
 RTBSE|             416           3.715                               0.650E+003
 RTBSE|             417           3.875                               0.650E+003
 RTBSE|             418           3.749                               0.650E+003
 RTBSE|             419           3.695                               0.650E+003
 RTBSE|             420           3.690                               0.650E+003
 RTBSE|             421           3.679                               0.650E+003
 RTBSE|             422           3.729                               0.650E+003
 RTBSE|             423           3.653                               0.650E+003
 RTBSE|             424           3.676                               0.650E+003
 RTBSE|             425           3.825                               0.650E+003
 RTBSE|             426           3.689                               0.650E+003
 RTBSE|             427           3.652                               0.650E+003
 RTBSE|             428           3.664                               0.650E+003
 RTBSE|             429           3.684                               0.650E+003
 RTBSE|             430           3.833                               0.650E+003
 RTBSE|             431           3.692                               0.650E+003
 RTBSE|             432           3.707                               0.650E+003
 RTBSE|             433           3.808                               0.650E+003
 RTBSE|             434           3.739                               0.650E+003
 RTBSE|             435           3.665                               0.650E+003
 RTBSE|             436           3.677                               0.650E+003
 RTBSE|             437           3.670                               0.650E+003
 RTBSE|             438           3.710                               0.650E+003
 RTBSE|             439           3.695                               0.650E+003
 RTBSE|             440           3.693                               0.650E+003
 RTBSE|             441           3.866                               0.650E+003
 RTBSE|             442           3.678                               0.650E+003
 RTBSE|             443           3.648                               0.650E+003
 RTBSE|             444           3.657                               0.650E+003
 RTBSE|             445           3.722                               0.650E+003
 RTBSE|             446           3.810                               0.650E+003
 RTBSE|             447           3.707                               0.650E+003
 RTBSE|             448           3.677                               0.650E+003
 RTBSE|             449           3.829                               0.650E+003
 RTBSE|             450           3.708                               0.650E+003
 RTBSE|             451           3.695                               0.650E+003
 RTBSE|             452           3.704                               0.650E+003
 RTBSE|             453           3.688                               0.650E+003
 RTBSE|             454           3.741                               0.650E+003
 RTBSE|             455           3.701                               0.650E+003
 RTBSE|             456           3.736                               0.650E+003
 RTBSE|             457           3.908                               0.650E+003
 RTBSE|             458           3.745                               0.650E+003
 RTBSE|             459           3.688                               0.650E+003
 RTBSE|             460           3.710                               0.650E+003
 RTBSE|             461           3.737                               0.650E+003
 RTBSE|             462           3.767                               0.650E+003
 RTBSE|             463           3.700                               0.650E+003
 RTBSE|             464           3.680                               0.650E+003
 RTBSE|             465           3.833                               0.650E+003
 RTBSE|             466           3.704                               0.650E+003
 RTBSE|             467           3.690                               0.650E+003
 RTBSE|             468           3.683                               0.650E+003
 RTBSE|             469           3.660                               0.650E+003
 RTBSE|             470           3.735                               0.650E+003
 RTBSE|             471           3.679                               0.650E+003
 RTBSE|             472           3.730                               0.650E+003
 RTBSE|             473           3.790                               0.650E+003
 RTBSE|             474           3.760                               0.650E+003
 RTBSE|             475           3.693                               0.650E+003
 RTBSE|             476           3.683                               0.650E+003
 RTBSE|             477           3.729                               0.650E+003
 RTBSE|             478           3.799                               0.650E+003
 RTBSE|             479           3.673                               0.650E+003
 RTBSE|             480           3.684                               0.650E+003
 RTBSE|             481           3.794                               0.650E+003
 RTBSE|             482           6.654                               0.650E+003
 RTBSE|             483           3.690                               0.650E+003
 RTBSE|             484           3.650                               0.650E+003
 RTBSE|             485           3.713                               0.650E+003
 RTBSE|             486           3.683                               0.650E+003
 RTBSE|             487           3.694                               0.650E+003
 RTBSE|             488           3.713                               0.650E+003
 RTBSE|             489           3.823                               0.650E+003
 RTBSE|             490           3.681                               0.650E+003
 RTBSE|             491           3.653                               0.650E+003
 RTBSE|             492           3.659                               0.650E+003
 RTBSE|             493           3.763                               0.650E+003
 RTBSE|             494           3.800                               0.650E+003
 RTBSE|             495           3.647                               0.650E+003
 RTBSE|             496           3.772                               0.650E+003
 RTBSE|             497           3.835                               0.650E+003
 RTBSE|             498           3.703                               0.650E+003
 RTBSE|             499           3.699                               0.650E+003
 RTBSE|             500           3.684                               0.650E+003
 RTBSE|             501           3.711                               0.650E+003
 RTBSE|             502           3.769                               0.650E+003
 RTBSE|             503           3.716                               0.650E+003
 RTBSE|             504           3.804                               0.650E+003
 RTBSE|             505           3.879                               0.650E+003
 RTBSE|             506           3.703                               0.650E+003
 RTBSE|             507           3.697                               0.650E+003
 RTBSE|             508           3.704                               0.650E+003
 RTBSE|             509           3.778                               0.650E+003
 RTBSE|             510           3.821                               0.650E+003
 RTBSE|             511           3.689                               0.650E+003
 RTBSE|             512           3.803                               0.650E+003
 RTBSE|             513           3.822                               0.650E+003
 RTBSE|             514           3.745                               0.650E+003
 RTBSE|             515           3.697                               0.650E+003
 RTBSE|             516           3.685                               0.650E+003
 RTBSE|             517           3.822                               0.650E+003
 RTBSE|             518           3.753                               0.650E+003
 RTBSE|             519           3.760                               0.650E+003
 RTBSE|             520           3.809                               0.650E+003
 RTBSE|             521           3.863                               0.650E+003
 RTBSE|             522           3.702                               0.650E+003
 RTBSE|             523           3.702                               0.650E+003
 RTBSE|             524           3.688                               0.650E+003
 RTBSE|             525           3.827                               0.650E+003
 RTBSE|             526           3.754                               0.650E+003
 RTBSE|             527           3.693                               0.650E+003
 RTBSE|             528           3.731                               0.650E+003
 RTBSE|             529           3.826                               0.650E+003
 RTBSE|             530           3.691                               0.650E+003
 RTBSE|             531           3.682                               0.650E+003
 RTBSE|             532           3.675                               0.650E+003
 RTBSE|             533           3.764                               0.650E+003
 RTBSE|             534           3.687                               0.650E+003
 RTBSE|             535           3.683                               0.650E+003
 RTBSE|             536           3.841                               0.650E+003
 RTBSE|             537           3.786                               0.650E+003
 RTBSE|             538           3.723                               0.650E+003
 RTBSE|             539           3.694                               0.650E+003
 RTBSE|             540           3.699                               0.650E+003
 RTBSE|             541           3.833                               0.650E+003
 RTBSE|             542           3.789                               0.650E+003
 RTBSE|             543           3.694                               0.650E+003
 RTBSE|             544           3.776                               0.650E+003
 RTBSE|             545           3.845                               0.650E+003
 RTBSE|             546           3.676                               0.650E+003
 RTBSE|             547           3.675                               0.650E+003
 RTBSE|             548           3.707                               0.650E+003
 RTBSE|             549           3.762                               0.650E+003
 RTBSE|             550           3.734                               0.650E+003
 RTBSE|             551           3.699                               0.650E+003
 RTBSE|             552           3.807                               0.650E+003
 RTBSE|             553           3.847                               0.650E+003
 RTBSE|             554           3.674                               0.650E+003
 RTBSE|             555           3.679                               0.650E+003
 RTBSE|             556           3.675                               0.650E+003
 RTBSE|             557           3.809                               0.650E+003
 RTBSE|             558           3.761                               0.650E+003
 RTBSE|             559           3.698                               0.650E+003
 RTBSE|             560           3.750                               0.650E+003
 RTBSE|             561           3.791                               0.650E+003
 RTBSE|             562           3.706                               0.650E+003
 RTBSE|             563           3.680                               0.650E+003
 RTBSE|             564           3.692                               0.650E+003
 RTBSE|             565           3.746                               0.650E+003
 RTBSE|             566           3.728                               0.650E+003
 RTBSE|             567           3.689                               0.650E+003
 RTBSE|             568           3.812                               0.650E+003
 RTBSE|             569           3.819                               0.650E+003
 RTBSE|             570           3.685                               0.650E+003
 RTBSE|             571           3.671                               0.650E+003
 RTBSE|             572           3.666                               0.650E+003
 RTBSE|             573           3.751                               0.650E+003
 RTBSE|             574           3.766                               0.650E+003
 RTBSE|             575           3.677                               0.650E+003
 RTBSE|             576           3.783                               0.650E+003
 RTBSE|             577           3.755                               0.650E+003
 RTBSE|             578           3.722                               0.650E+003
 RTBSE|             579           3.694                               0.650E+003
 RTBSE|             580           3.674                               0.650E+003
 RTBSE|             581           3.739                               0.650E+003
 RTBSE|             582           3.818                               0.650E+003
 RTBSE|             583           3.683                               0.650E+003
 RTBSE|             584           3.809                               0.650E+003
 RTBSE|             585           3.773                               0.650E+003
 RTBSE|             586           3.692                               0.650E+003
 RTBSE|             587           3.734                               0.650E+003
 RTBSE|             588           3.680                               0.650E+003
 RTBSE|             589           3.737                               0.650E+003
 RTBSE|             590           3.784                               0.650E+003
 RTBSE|             591           3.677                               0.650E+003
 RTBSE|             592           3.749                               0.650E+003
 RTBSE|             593           3.787                               0.650E+003
 RTBSE|             594           3.691                               0.650E+003
 RTBSE|             595           3.674                               0.650E+003
 RTBSE|             596           3.680                               0.650E+003
 RTBSE|             597           3.695                               0.650E+003
 RTBSE|             598           3.732                               0.650E+003
 RTBSE|             599           3.684                               0.650E+003
 RTBSE|             600           3.808                               0.650E+003
 RTBSE|             601           3.874                               0.650E+003
 RTBSE|             602           3.686                               0.650E+003
 RTBSE|             603           3.678                               0.650E+003
 RTBSE|             604           3.670                               0.650E+003
 RTBSE|             605           3.757                               0.650E+003
 RTBSE|             606           3.785                               0.650E+003
 RTBSE|             607           3.673                               0.650E+003
 RTBSE|             608           3.778                               0.650E+003
 RTBSE|             609           3.786                               0.650E+003
 RTBSE|             610           3.685                               0.650E+003
 RTBSE|             611           3.677                               0.650E+003
 RTBSE|             612           3.678                               0.650E+003
 RTBSE|             613           3.706                               0.650E+003
 RTBSE|             614           3.763                               0.650E+003
 RTBSE|             615           3.666                               0.650E+003
 RTBSE|             616           3.852                               0.650E+003
 RTBSE|             617           3.806                               0.650E+003
 RTBSE|             618           3.692                               0.650E+003
 RTBSE|             619           3.699                               0.650E+003
 RTBSE|             620           3.782                               0.650E+003
 RTBSE|             621           3.752                               0.650E+003
 RTBSE|             622           3.785                               0.650E+003
 RTBSE|             623           3.685                               0.650E+003
 RTBSE|             624           3.820                               0.650E+003
 RTBSE|             625           3.901                               0.650E+003
 RTBSE|             626           3.726                               0.650E+003
 RTBSE|             627           3.685                               0.650E+003
 RTBSE|             628           3.685                               0.650E+003
 RTBSE|             629           3.698                               0.650E+003
 RTBSE|             630           3.756                               0.650E+003
 RTBSE|             631           3.710                               0.650E+003
 RTBSE|             632           3.801                               0.650E+003
 RTBSE|             633           3.865                               0.650E+003
 RTBSE|             634           3.700                               0.650E+003
 RTBSE|             635           3.709                               0.650E+003
 RTBSE|             636           3.682                               0.650E+003
 RTBSE|             637           3.750                               0.650E+003
 RTBSE|             638           3.763                               0.650E+003
 RTBSE|             639           3.699                               0.650E+003
 RTBSE|             640           3.784                               0.650E+003
 RTBSE|             641           3.826                               0.650E+003
 RTBSE|             642           3.719                               0.650E+003
 RTBSE|             643           3.692                               0.650E+003
 RTBSE|             644           3.684                               0.650E+003
 RTBSE|             645           3.702                               0.650E+003
 RTBSE|             646           3.778                               0.650E+003
 RTBSE|             647           3.697                               0.650E+003
 RTBSE|             648           3.785                               0.650E+003
 RTBSE|             649           3.897                               0.650E+003
 RTBSE|             650           3.692                               0.650E+003
 RTBSE|             651           3.681                               0.650E+003
 RTBSE|             652           3.683                               0.650E+003
 RTBSE|             653           3.755                               0.650E+003
 RTBSE|             654           3.730                               0.650E+003
 RTBSE|             655           3.670                               0.650E+003
 RTBSE|             656           3.800                               0.650E+003
 RTBSE|             657           3.892                               0.650E+003
 RTBSE|             658           3.684                               0.650E+003
 RTBSE|             659           3.703                               0.650E+003
 RTBSE|             660           3.720                               0.650E+003
 RTBSE|             661           3.735                               0.650E+003
 RTBSE|             662           3.726                               0.650E+003
 RTBSE|             663           3.706                               0.650E+003
 RTBSE|             664           3.772                               0.650E+003
 RTBSE|             665           3.883                               0.650E+003
 RTBSE|             666           3.743                               0.650E+003
 RTBSE|             667           3.733                               0.650E+003
 RTBSE|             668           3.692                               0.650E+003
 RTBSE|             669           3.746                               0.650E+003
 RTBSE|             670           3.791                               0.650E+003
 RTBSE|             671           3.696                               0.650E+003
 RTBSE|             672           3.802                               0.650E+003
 RTBSE|             673           3.810                               0.650E+003
 RTBSE|             674           3.696                               0.650E+003
 RTBSE|             675           3.680                               0.650E+003
 RTBSE|             676           3.693                               0.650E+003
 RTBSE|             677           3.716                               0.650E+003
 RTBSE|             678           3.750                               0.650E+003
 RTBSE|             679           3.686                               0.650E+003
 RTBSE|             680           3.787                               0.650E+003
 RTBSE|             681           3.869                               0.650E+003
 RTBSE|             682           3.693                               0.650E+003
 RTBSE|             683           3.692                               0.650E+003
 RTBSE|             684           3.685                               0.650E+003
 RTBSE|             685           3.743                               0.650E+003
 RTBSE|             686           3.822                               0.650E+003
 RTBSE|             687           3.680                               0.650E+003
 RTBSE|             688           3.791                               0.650E+003
 RTBSE|             689           3.795                               0.650E+003
 RTBSE|             690           3.695                               0.650E+003
 RTBSE|             691           3.662                               0.650E+003
 RTBSE|             692           3.686                               0.650E+003
 RTBSE|             693           3.714                               0.650E+003
 RTBSE|             694           3.716                               0.650E+003
 RTBSE|             695           3.682                               0.650E+003
 RTBSE|             696           3.790                               0.650E+003
 RTBSE|             697           3.885                               0.650E+003
 RTBSE|             698           3.672                               0.650E+003
 RTBSE|             699           3.671                               0.650E+003
 RTBSE|             700           3.703                               0.650E+003
 RTBSE|             701           3.728                               0.650E+003
 RTBSE|             702           3.772                               0.650E+003
 RTBSE|             703           3.687                               0.650E+003
 RTBSE|             704           3.779                               0.650E+003
 RTBSE|             705           3.822                               0.650E+003
 RTBSE|             706           3.704                               0.650E+003
 RTBSE|             707           3.671                               0.650E+003
 RTBSE|             708           3.678                               0.650E+003
 RTBSE|             709           3.723                               0.650E+003
 RTBSE|             710           3.747                               0.650E+003
 RTBSE|             711           3.688                               0.650E+003
 RTBSE|             712           3.847                               0.650E+003
 RTBSE|             713           3.911                               0.650E+003
 RTBSE|             714           3.690                               0.650E+003
 RTBSE|             715           3.692                               0.650E+003
 RTBSE|             716           3.729                               0.650E+003
 RTBSE|             717           3.746                               0.650E+003
 RTBSE|             718           3.806                               0.650E+003
 RTBSE|             719           3.703                               0.650E+003
 RTBSE|             720           3.774                               0.650E+003
 RTBSE|             721           3.814                               0.650E+003
 RTBSE|             722           3.702                               0.650E+003
 RTBSE|             723           3.686                               0.650E+003
 RTBSE|             724           3.684                               0.650E+003
 RTBSE|             725           3.692                               0.650E+003
 RTBSE|             726           3.718                               0.650E+003
 RTBSE|             727           3.672                               0.650E+003
 RTBSE|             728           3.813                               0.650E+003
 RTBSE|             729           3.880                               0.650E+003
 RTBSE|             730           3.763                               0.650E+003
 RTBSE|             731           3.676                               0.650E+003
 RTBSE|             732           3.757                               0.650E+003
 RTBSE|             733           3.804                               0.650E+003
 RTBSE|             734           3.804                               0.650E+003
 RTBSE|             735           3.717                               0.650E+003
 RTBSE|             736           3.796                               0.650E+003
 RTBSE|             737           3.777                               0.650E+003
 RTBSE|             738           3.714                               0.650E+003
 RTBSE|             739           3.700                               0.650E+003
 RTBSE|             740           3.668                               0.650E+003
 RTBSE|             741           3.698                               0.650E+003
 RTBSE|             742           3.773                               0.650E+003
 RTBSE|             743           3.658                               0.650E+003
 RTBSE|             744           3.777                               0.650E+003
 RTBSE|             745           3.837                               0.650E+003
 RTBSE|             746           3.684                               0.650E+003
 RTBSE|             747           3.689                               0.650E+003
 RTBSE|             748           3.716                               0.650E+003
 RTBSE|             749           3.750                               0.650E+003
 RTBSE|             750           3.781                               0.650E+003
 RTBSE|             751           3.696                               0.650E+003
 RTBSE|             752           3.720                               0.650E+003
 RTBSE|             753           3.804                               0.650E+003
 RTBSE|             754           3.672                               0.650E+003
 RTBSE|             755           3.692                               0.650E+003
 RTBSE|             756           3.667                               0.650E+003
 RTBSE|             757           3.672                               0.650E+003
 RTBSE|             758           3.729                               0.650E+003
 RTBSE|             759           3.685                               0.650E+003
 RTBSE|             760           3.834                               0.650E+003
 RTBSE|             761           3.861                               0.650E+003
 RTBSE|             762           3.678                               0.650E+003
 RTBSE|             763           3.685                               0.650E+003
 RTBSE|             764           3.694                               0.650E+003
 RTBSE|             765           3.694                               0.650E+003
 RTBSE|             766           3.779                               0.650E+003
 RTBSE|             767           3.675                               0.650E+003
 RTBSE|             768           3.826                               0.650E+003
 RTBSE|             769           3.841                               0.650E+003
 RTBSE|             770           3.693                               0.650E+003
 RTBSE|             771           3.670                               0.650E+003
 RTBSE|             772           3.669                               0.650E+003
 RTBSE|             773           3.688                               0.650E+003
 RTBSE|             774           3.760                               0.650E+003
 RTBSE|             775           3.702                               0.650E+003
 RTBSE|             776           3.921                               0.650E+003
 RTBSE|             777           3.908                               0.650E+003
 RTBSE|             778           3.690                               0.650E+003
 RTBSE|             779           3.713                               0.650E+003
 RTBSE|             780           3.683                               0.650E+003
 RTBSE|             781           3.744                               0.650E+003
 RTBSE|             782           3.775                               0.650E+003
 RTBSE|             783           3.704                               0.650E+003
 RTBSE|             784           3.762                               0.650E+003
 RTBSE|             785           3.854                               0.650E+003
 RTBSE|             786           3.681                               0.650E+003
 RTBSE|             787           3.680                               0.650E+003
 RTBSE|             788           3.690                               0.650E+003
 RTBSE|             789           3.708                               0.650E+003
 RTBSE|             790           3.748                               0.650E+003
 RTBSE|             791           3.686                               0.650E+003
 RTBSE|             792           3.830                               0.650E+003
 RTBSE|             793           3.848                               0.650E+003
 RTBSE|             794           3.769                               0.650E+003
 RTBSE|             795           3.705                               0.650E+003
 RTBSE|             796           3.728                               0.650E+003
 RTBSE|             797           3.753                               0.650E+003
 RTBSE|             798           3.802                               0.650E+003
 RTBSE|             799           3.695                               0.650E+003
 RTBSE|             800           3.764                               0.650E+003
 RTBSE|             801           3.814                               0.650E+003
 RTBSE|             802           3.729                               0.650E+003
 RTBSE|             803           3.694                               0.650E+003
 RTBSE|             804           3.719                               0.650E+003
 RTBSE|             805           3.725                               0.650E+003
 RTBSE|             806           3.784                               0.650E+003
 RTBSE|             807           3.730                               0.650E+003
 RTBSE|             808           3.842                               0.650E+003
 RTBSE|             809           3.851                               0.650E+003
 RTBSE|             810           3.706                               0.650E+003
 RTBSE|             811           3.709                               0.650E+003
 RTBSE|             812           3.694                               0.650E+003
 RTBSE|             813           3.825                               0.650E+003
 RTBSE|             814           3.771                               0.650E+003
 RTBSE|             815           3.733                               0.650E+003
 RTBSE|             816           3.759                               0.650E+003
 RTBSE|             817           3.765                               0.650E+003
 RTBSE|             818           3.725                               0.650E+003
 RTBSE|             819           3.689                               0.650E+003
 RTBSE|             820           3.678                               0.650E+003
 RTBSE|             821           3.822                               0.650E+003
 RTBSE|             822           3.742                               0.650E+003
 RTBSE|             823           3.703                               0.650E+003
 RTBSE|             824           3.825                               0.650E+003
 RTBSE|             825           3.819                               0.650E+003
 RTBSE|             826           3.687                               0.650E+003
 RTBSE|             827           3.702                               0.650E+003
 RTBSE|             828           3.696                               0.650E+003
 RTBSE|             829           3.814                               0.650E+003
 RTBSE|             830           3.789                               0.650E+003
 RTBSE|             831           3.734                               0.650E+003
 RTBSE|             832           3.770                               0.650E+003
 RTBSE|             833           3.800                               0.650E+003
 RTBSE|             834           3.707                               0.650E+003
 RTBSE|             835           3.694                               0.650E+003
 RTBSE|             836           3.691                               0.650E+003
 RTBSE|             837           3.764                               0.650E+003
 RTBSE|             838           3.729                               0.650E+003
 RTBSE|             839           3.697                               0.650E+003
 RTBSE|             840           3.787                               0.650E+003
 RTBSE|             841           3.840                               0.650E+003
 RTBSE|             842           3.683                               0.650E+003
 RTBSE|             843           3.713                               0.650E+003
 RTBSE|             844           3.697                               0.650E+003
 RTBSE|             845           3.784                               0.650E+003
 RTBSE|             846           3.794                               0.650E+003
 RTBSE|             847           3.675                               0.650E+003
 RTBSE|             848           3.747                               0.650E+003
 RTBSE|             849           3.820                               0.650E+003
 RTBSE|             850           3.679                               0.650E+003
 RTBSE|             851           3.708                               0.650E+003
 RTBSE|             852           3.692                               0.650E+003
 RTBSE|             853           3.753                               0.650E+003
 RTBSE|             854           3.709                               0.650E+003
 RTBSE|             855           3.680                               0.650E+003
 RTBSE|             856           3.810                               0.650E+003
 RTBSE|             857           3.815                               0.650E+003
 RTBSE|             858           3.747                               0.650E+003
 RTBSE|             859           3.687                               0.650E+003
 RTBSE|             860           3.695                               0.650E+003
 RTBSE|             861           3.770                               0.650E+003
 RTBSE|             862           3.763                               0.650E+003
 RTBSE|             863           3.712                               0.650E+003
 RTBSE|             864           3.769                               0.650E+003
 RTBSE|             865           3.820                               0.650E+003
 RTBSE|             866           3.695                               0.650E+003
 RTBSE|             867           3.753                               0.650E+003
 RTBSE|             868           3.718                               0.650E+003
 RTBSE|             869           3.767                               0.650E+003
 RTBSE|             870           3.737                               0.650E+003
 RTBSE|             871           3.725                               0.650E+003
 RTBSE|             872           3.897                               0.650E+003
 RTBSE|             873           3.877                               0.650E+003
 RTBSE|             874           3.734                               0.650E+003
 RTBSE|             875           3.733                               0.650E+003
 RTBSE|             876           3.752                               0.650E+003
 RTBSE|             877           3.842                               0.650E+003
 RTBSE|             878           3.809                               0.650E+003
 RTBSE|             879           3.718                               0.650E+003
 RTBSE|             880           3.857                               0.650E+003
 RTBSE|             881           3.828                               0.650E+003
 RTBSE|             882           3.727                               0.650E+003
 RTBSE|             883           3.743                               0.650E+003
 RTBSE|             884           3.746                               0.650E+003
 RTBSE|             885           3.827                               0.650E+003
 RTBSE|             886           3.804                               0.650E+003
 RTBSE|             887           3.748                               0.650E+003
 RTBSE|             888           3.848                               0.650E+003
 RTBSE|             889           3.770                               0.650E+003
 RTBSE|             890           3.710                               0.650E+003
 RTBSE|             891           3.696                               0.650E+003
 RTBSE|             892           3.704                               0.650E+003
 RTBSE|             893           3.803                               0.650E+003
 RTBSE|             894           3.803                               0.650E+003
 RTBSE|             895           3.710                               0.650E+003
 RTBSE|             896           3.867                               0.650E+003
 RTBSE|             897           3.739                               0.650E+003
 RTBSE|             898           3.698                               0.650E+003
 RTBSE|             899           3.706                               0.650E+003
 RTBSE|             900           3.715                               0.650E+003
 RTBSE|             901           3.746                               0.650E+003
 RTBSE|             902           3.763                               0.650E+003
 RTBSE|             903           3.701                               0.650E+003
 RTBSE|             904           3.882                               0.650E+003
 RTBSE|             905           3.752                               0.650E+003
 RTBSE|             906           3.689                               0.650E+003
 RTBSE|             907           3.695                               0.650E+003
 RTBSE|             908           3.712                               0.650E+003
 RTBSE|             909           3.809                               0.650E+003
 RTBSE|             910           3.748                               0.650E+003
 RTBSE|             911           3.697                               0.650E+003
 RTBSE|             912           3.908                               0.650E+003
 RTBSE|             913           3.766                               0.650E+003
 RTBSE|             914           3.698                               0.650E+003
 RTBSE|             915           3.702                               0.650E+003
 RTBSE|             916           3.732                               0.650E+003
 RTBSE|             917           3.775                               0.650E+003
 RTBSE|             918           3.734                               0.650E+003
 RTBSE|             919           3.715                               0.650E+003
 RTBSE|             920           3.942                               0.650E+003
 RTBSE|             921           3.838                               0.650E+003
 RTBSE|             922           3.713                               0.650E+003
 RTBSE|             923           3.703                               0.650E+003
 RTBSE|             924           3.718                               0.650E+003
 RTBSE|             925           3.800                               0.650E+003
 RTBSE|             926           3.751                               0.650E+003
 RTBSE|             927           3.759                               0.650E+003
 RTBSE|             928           3.848                               0.650E+003
 RTBSE|             929           3.751                               0.650E+003
 RTBSE|             930           3.707                               0.650E+003
 RTBSE|             931           3.697                               0.650E+003
 RTBSE|             932           3.673                               0.650E+003
 RTBSE|             933           3.750                               0.650E+003
 RTBSE|             934           3.733                               0.650E+003
 RTBSE|             935           3.694                               0.650E+003
 RTBSE|             936           3.862                               0.650E+003
 RTBSE|             937           3.827                               0.650E+003
 RTBSE|             938           3.689                               0.650E+003
 RTBSE|             939           3.688                               0.650E+003
 RTBSE|             940           3.693                               0.650E+003
 RTBSE|             941           3.759                               0.650E+003
 RTBSE|             942           3.724                               0.650E+003
 RTBSE|             943           3.678                               0.650E+003
 RTBSE|             944           3.826                               0.650E+003
 RTBSE|             945           3.767                               0.650E+003
 RTBSE|             946           3.655                               0.650E+003
 RTBSE|             947           3.666                               0.650E+003
 RTBSE|             948           3.678                               0.650E+003
 RTBSE|             949           3.721                               0.650E+003
 RTBSE|             950           3.709                               0.650E+003
 RTBSE|             951           3.680                               0.650E+003
 RTBSE|             952           3.933                               0.650E+003
 RTBSE|             953           3.791                               0.650E+003
 RTBSE|             954           3.669                               0.650E+003
 RTBSE|             955           3.666                               0.650E+003
 RTBSE|             956           3.679                               0.650E+003
 RTBSE|             957           3.745                               0.650E+003
 RTBSE|             958           3.735                               0.650E+003
 RTBSE|             959           3.691                               0.650E+003
 RTBSE|             960           3.893                               0.650E+003
 RTBSE|             961           3.752                               0.650E+003
 RTBSE|             962           3.688                               0.650E+003
 RTBSE|             963           3.703                               0.650E+003
 RTBSE|             964           3.717                               0.650E+003
 RTBSE|             965           3.776                               0.650E+003
 RTBSE|             966           3.666                               0.650E+003
 RTBSE|             967           3.649                               0.650E+003
 RTBSE|             968           3.875                               0.650E+003
 RTBSE|             969           3.716                               0.650E+003
 RTBSE|             970           3.662                               0.650E+003
 RTBSE|             971           3.638                               0.650E+003
 RTBSE|             972           3.652                               0.650E+003
 RTBSE|             973           3.789                               0.650E+003
 RTBSE|             974           3.741                               0.650E+003
 RTBSE|             975           3.687                               0.650E+003
 RTBSE|             976           3.830                               0.650E+003
 RTBSE|             977           3.720                               0.650E+003
 RTBSE|             978           3.671                               0.650E+003
 RTBSE|             979           3.681                               0.650E+003
 RTBSE|             980           3.691                               0.650E+003
 RTBSE|             981           3.736                               0.650E+003
 RTBSE|             982           3.707                               0.650E+003
 RTBSE|             983           3.666                               0.650E+003
 RTBSE|             984           3.840                               0.650E+003
 RTBSE|             985           3.712                               0.650E+003
 RTBSE|             986           3.725                               0.650E+003
 RTBSE|             987           3.669                               0.650E+003
 RTBSE|             988           3.662                               0.650E+003
 RTBSE|             989           3.801                               0.650E+003
 RTBSE|             990           3.725                               0.650E+003
 RTBSE|             991           3.661                               0.650E+003
 RTBSE|             992           3.838                               0.650E+003
 RTBSE|             993           3.776                               0.650E+003
 RTBSE|             994           3.668                               0.650E+003
 RTBSE|             995           3.676                               0.650E+003
 RTBSE|             996           3.690                               0.650E+003
 RTBSE|             997           3.805                               0.650E+003
 RTBSE|             998           3.717                               0.650E+003
 RTBSE|             999           3.684                               0.650E+003
 RTBSE|            1000           3.915                               0.650E+003
 RTBSE|            1001           3.744                               0.650E+003
 RTBSE|            1002           3.742                               0.650E+003
 RTBSE|            1003           3.719                               0.650E+003
 RTBSE|            1004           3.706                               0.650E+003
 RTBSE|            1005           3.858                               0.650E+003
 RTBSE|            1006           3.736                               0.650E+003
 RTBSE|            1007           3.722                               0.650E+003
 RTBSE|            1008           3.840                               0.650E+003
 RTBSE|            1009           3.760                               0.650E+003
 RTBSE|            1010           3.747                               0.650E+003
 RTBSE|            1011           3.720                               0.650E+003
 RTBSE|            1012           3.689                               0.650E+003
 RTBSE|            1013           3.748                               0.650E+003
 RTBSE|            1014           3.700                               0.650E+003
 RTBSE|            1015           3.690                               0.650E+003
 RTBSE|            1016           3.872                               0.650E+003
 RTBSE|            1017           3.745                               0.650E+003
 RTBSE|            1018           3.713                               0.650E+003
 RTBSE|            1019           3.758                               0.650E+003
 RTBSE|            1020           3.745                               0.650E+003
 RTBSE|            1021           3.920                               0.650E+003
 RTBSE|            1022           3.770                               0.650E+003
 RTBSE|            1023           3.720                               0.650E+003
 RTBSE|            1024           3.968                               0.650E+003
 RTBSE|            1025           3.849                               0.650E+003
 RTBSE|            1026           3.757                               0.650E+003
 RTBSE|            1027           3.717                               0.650E+003
 RTBSE|            1028           3.755                               0.650E+003
 RTBSE|            1029           3.791                               0.650E+003
 RTBSE|            1030           3.771                               0.650E+003
 RTBSE|            1031           3.782                               0.650E+003
 RTBSE|            1032           3.978                               0.650E+003
 RTBSE|            1033           3.828                               0.650E+003
 RTBSE|            1034           3.764                               0.650E+003
 RTBSE|            1035           3.753                               0.650E+003
 RTBSE|            1036           3.736                               0.650E+003
 RTBSE|            1037           3.832                               0.650E+003
 RTBSE|            1038           3.819                               0.650E+003
 RTBSE|            1039           3.775                               0.650E+003
 RTBSE|            1040           4.011                               0.650E+003
 RTBSE|            1041           3.784                               0.650E+003
 RTBSE|            1042           3.759                               0.650E+003
 RTBSE|            1043           3.766                               0.650E+003
 RTBSE|            1044           3.784                               0.650E+003
 RTBSE|            1045           3.834                               0.650E+003
 RTBSE|            1046           3.748                               0.650E+003
 RTBSE|            1047           3.767                               0.650E+003
 RTBSE|            1048           3.966                               0.650E+003
 RTBSE|            1049           3.805                               0.650E+003
 RTBSE|            1050           3.726                               0.650E+003
 RTBSE|            1051           3.756                               0.650E+003
 RTBSE|            1052           3.754                               0.650E+003
 RTBSE|            1053           3.816                               0.650E+003
 RTBSE|            1054           3.730                               0.650E+003
 RTBSE|            1055           3.826                               0.650E+003
 RTBSE|            1056           3.865                               0.650E+003
 RTBSE|            1057           3.685                               0.650E+003
 RTBSE|            1058           3.670                               0.650E+003
 RTBSE|            1059           3.672                               0.650E+003
 RTBSE|            1060           3.822                               0.650E+003
 RTBSE|            1061           3.795                               0.650E+003
 RTBSE|            1062           3.761                               0.650E+003
 RTBSE|            1063           3.859                               0.650E+003
 RTBSE|            1064           3.880                               0.650E+003
 RTBSE|            1065           3.747                               0.650E+003
 RTBSE|            1066           3.675                               0.650E+003
 RTBSE|            1067           3.678                               0.650E+003
 RTBSE|            1068           3.703                               0.650E+003
 RTBSE|            1069           3.856                               0.650E+003
 RTBSE|            1070           3.822                               0.650E+003
 RTBSE|            1071           3.856                               0.650E+003
 RTBSE|            1072           3.874                               0.650E+003
 RTBSE|            1073           3.766                               0.650E+003
 RTBSE|            1074           3.699                               0.650E+003
 RTBSE|            1075           3.702                               0.650E+003
 RTBSE|            1076           3.744                               0.650E+003
 RTBSE|            1077           3.722                               0.650E+003
 RTBSE|            1078           3.690                               0.650E+003
 RTBSE|            1079           3.826                               0.650E+003
 RTBSE|            1080           3.820                               0.650E+003
 RTBSE|            1081           3.714                               0.650E+003
 RTBSE|            1082           3.727                               0.650E+003
 RTBSE|            1083           3.709                               0.650E+003
 RTBSE|            1084           3.768                               0.650E+003
 RTBSE|            1085           3.763                               0.650E+003
 RTBSE|            1086           3.750                               0.650E+003
 RTBSE|            1087           3.881                               0.650E+003
 RTBSE|            1088           3.826                               0.650E+003
 RTBSE|            1089           3.722                               0.650E+003
 RTBSE|            1090           3.712                               0.650E+003
 RTBSE|            1091           3.701                               0.650E+003
 RTBSE|            1092           3.756                               0.650E+003
 RTBSE|            1093           3.745                               0.650E+003
 RTBSE|            1094           3.734                               0.650E+003
 RTBSE|            1095           3.949                               0.650E+003
 RTBSE|            1096           3.778                               0.650E+003
 RTBSE|            1097           3.762                               0.650E+003
 RTBSE|            1098           3.716                               0.650E+003
 RTBSE|            1099           3.704                               0.650E+003
 RTBSE|            1100           3.753                               0.650E+003
 RTBSE|            1101           3.817                               0.650E+003
 RTBSE|            1102           3.766                               0.650E+003
 RTBSE|            1103           3.924                               0.650E+003
 RTBSE|            1104           3.832                               0.650E+003
 RTBSE|            1105           3.763                               0.650E+003
 RTBSE|            1106           3.763                               0.650E+003
 RTBSE|            1107           3.707                               0.650E+003
 RTBSE|            1108           3.744                               0.650E+003
 RTBSE|            1109           3.715                               0.650E+003
 RTBSE|            1110           3.741                               0.650E+003
 RTBSE|            1111           3.976                               0.650E+003
 RTBSE|            1112           3.788                               0.650E+003
 RTBSE|            1113           3.764                               0.650E+003
 RTBSE|            1114           3.710                               0.650E+003
 RTBSE|            1115           3.707                               0.650E+003
 RTBSE|            1116           3.811                               0.650E+003
 RTBSE|            1117           3.756                               0.650E+003
 RTBSE|            1118           3.695                               0.650E+003
 RTBSE|            1119           3.913                               0.650E+003
 RTBSE|            1120           3.792                               0.650E+003
 RTBSE|            1121           3.698                               0.650E+003
 RTBSE|            1122           3.716                               0.650E+003
 RTBSE|            1123           4.352                               0.650E+003
 RTBSE|            1124           6.016                               0.650E+003
 RTBSE|            1125           3.711                               0.650E+003
 RTBSE|            1126           3.921                               0.650E+003
 RTBSE|            1127           3.774                               0.650E+003
 RTBSE|            1128           3.774                               0.650E+003
 RTBSE|            1129           3.704                               0.650E+003
 RTBSE|            1130           3.733                               0.650E+003
 RTBSE|            1131           3.775                               0.650E+003
 RTBSE|            1132           3.781                               0.650E+003
 RTBSE|            1133           3.684                               0.650E+003
 RTBSE|            1134           3.845                               0.650E+003
 RTBSE|            1135           3.721                               0.650E+003
 RTBSE|            1136           3.659                               0.650E+003
 RTBSE|            1137           3.667                               0.650E+003
 RTBSE|            1138           3.702                               0.650E+003
 RTBSE|            1139           3.751                               0.650E+003
 RTBSE|            1140           3.738                               0.650E+003
 RTBSE|            1141           3.709                               0.650E+003
 RTBSE|            1142           3.869                               0.650E+003
 RTBSE|            1143           3.808                               0.650E+003
 RTBSE|            1144           3.760                               0.650E+003
 RTBSE|            1145           3.704                               0.650E+003
 RTBSE|            1146           3.710                               0.650E+003
 RTBSE|            1147           3.793                               0.650E+003
 RTBSE|            1148           3.801                               0.650E+003
 RTBSE|            1149           3.693                               0.650E+003
 RTBSE|            1150           3.814                               0.650E+003
 RTBSE|            1151           3.707                               0.650E+003
 RTBSE|            1152           3.721                               0.650E+003
 RTBSE|            1153           3.703                               0.650E+003
 RTBSE|            1154           3.706                               0.650E+003
 RTBSE|            1155           3.746                               0.650E+003
 RTBSE|            1156           3.698                               0.650E+003
 RTBSE|            1157           3.695                               0.650E+003
 RTBSE|            1158           3.893                               0.650E+003
 RTBSE|            1159           3.763                               0.650E+003
 RTBSE|            1160           3.732                               0.650E+003
 RTBSE|            1161           3.688                               0.650E+003
 RTBSE|            1162           3.706                               0.650E+003
 RTBSE|            1163           3.767                               0.650E+003
 RTBSE|            1164           3.748                               0.650E+003
 RTBSE|            1165           3.750                               0.650E+003
 RTBSE|            1166           3.834                               0.650E+003
 RTBSE|            1167           3.744                               0.650E+003
 RTBSE|            1168           3.701                               0.650E+003
 RTBSE|            1169           3.711                               0.650E+003
 RTBSE|            1170           3.700                               0.650E+003
 RTBSE|            1171           3.760                               0.650E+003
 RTBSE|            1172           3.719                               0.650E+003
 RTBSE|            1173           3.730                               0.650E+003
 RTBSE|            1174           3.872                               0.650E+003
 RTBSE|            1175           3.740                               0.650E+003
 RTBSE|            1176           3.693                               0.650E+003
 RTBSE|            1177           3.699                               0.650E+003
 RTBSE|            1178           3.685                               0.650E+003
 RTBSE|            1179           3.735                               0.650E+003
 RTBSE|            1180           3.714                               0.650E+003
 RTBSE|            1181           3.706                               0.650E+003
 RTBSE|            1182           3.823                               0.650E+003
 RTBSE|            1183           3.736                               0.650E+003
 RTBSE|            1184           3.690                               0.650E+003
 RTBSE|            1185           3.694                               0.650E+003
 RTBSE|            1186           3.671                               0.650E+003
 RTBSE|            1187           3.795                               0.650E+003
 RTBSE|            1188           3.687                               0.650E+003
 RTBSE|            1189           3.709                               0.650E+003
 RTBSE|            1190           3.867                               0.650E+003
 RTBSE|            1191           3.787                               0.650E+003
 RTBSE|            1192           3.739                               0.650E+003
 RTBSE|            1193           3.687                               0.650E+003
 RTBSE|            1194           3.684                               0.650E+003
 RTBSE|            1195           3.792                               0.650E+003
 RTBSE|            1196           3.748                               0.650E+003
 RTBSE|            1197           3.731                               0.650E+003
 RTBSE|            1198           3.827                               0.650E+003
 RTBSE|            1199           3.762                               0.650E+003
 RTBSE|            1200           3.746                               0.650E+003
 RTBSE|            1201           3.735                               0.650E+003
 RTBSE|            1202           3.712                               0.650E+003
 RTBSE|            1203           3.762                               0.650E+003
 RTBSE|            1204           3.752                               0.650E+003
 RTBSE|            1205           3.707                               0.650E+003
 RTBSE|            1206           3.886                               0.650E+003
 RTBSE|            1207           3.748                               0.650E+003
 RTBSE|            1208           3.755                               0.650E+003
 RTBSE|            1209           3.704                               0.650E+003
 RTBSE|            1210           3.719                               0.650E+003
 RTBSE|            1211           3.770                               0.650E+003
 RTBSE|            1212           3.803                               0.650E+003
 RTBSE|            1213           3.774                               0.650E+003
 RTBSE|            1214           3.931                               0.650E+003
 RTBSE|            1215           3.762                               0.650E+003
 RTBSE|            1216           3.688                               0.650E+003
 RTBSE|            1217           3.685                               0.650E+003
 RTBSE|            1218           3.713                               0.650E+003
 RTBSE|            1219           3.754                               0.650E+003
 RTBSE|            1220           3.688                               0.650E+003
 RTBSE|            1221           3.686                               0.650E+003
 RTBSE|            1222           3.980                               0.650E+003
 RTBSE|            1223           3.765                               0.650E+003
 RTBSE|            1224           3.800                               0.650E+003
 RTBSE|            1225           3.731                               0.650E+003
 RTBSE|            1226           3.708                               0.650E+003
 RTBSE|            1227           3.780                               0.650E+003
 RTBSE|            1228           3.848                               0.650E+003
 RTBSE|            1229           3.753                               0.650E+003
 RTBSE|            1230           3.888                               0.650E+003
 RTBSE|            1231           3.818                               0.650E+003
 RTBSE|            1232           3.739                               0.650E+003
 RTBSE|            1233           3.740                               0.650E+003
 RTBSE|            1234           3.730                               0.650E+003
 RTBSE|            1235           3.789                               0.650E+003
 RTBSE|            1236           3.817                               0.650E+003
 RTBSE|            1237           3.785                               0.650E+003
 RTBSE|            1238           3.967                               0.650E+003
 RTBSE|            1239           3.800                               0.650E+003
 RTBSE|            1240           3.784                               0.650E+003
 RTBSE|            1241           3.773                               0.650E+003
 RTBSE|            1242           3.766                               0.650E+003
 RTBSE|            1243           3.809                               0.650E+003
 RTBSE|            1244           3.826                               0.650E+003
 RTBSE|            1245           3.759                               0.650E+003
 RTBSE|            1246           3.848                               0.650E+003
 RTBSE|            1247           3.773                               0.650E+003
 RTBSE|            1248           3.813                               0.650E+003
 RTBSE|            1249           3.831                               0.650E+003
 RTBSE|            1250           3.849                               0.650E+003
 RTBSE|            1251           3.874                               0.650E+003
 RTBSE|            1252           3.815                               0.650E+003
 RTBSE|            1253           3.896                               0.650E+003
 RTBSE|            1254           4.010                               0.650E+003
 RTBSE|            1255           3.874                               0.650E+003
 RTBSE|            1256           3.834                               0.650E+003
 RTBSE|            1257           3.757                               0.650E+003
 RTBSE|            1258           3.833                               0.650E+003
 RTBSE|            1259           3.810                               0.650E+003
 RTBSE|            1260           3.765                               0.650E+003
 RTBSE|            1261           3.876                               0.650E+003
 RTBSE|            1262           3.870                               0.650E+003
 RTBSE|            1263           3.765                               0.650E+003
 RTBSE|            1264           3.721                               0.650E+003
 RTBSE|            1265           3.723                               0.650E+003
 RTBSE|            1266           3.764                               0.650E+003
 RTBSE|            1267           3.729                               0.650E+003
 RTBSE|            1268           3.693                               0.650E+003
 RTBSE|            1269           3.797                               0.650E+003
 RTBSE|            1270           3.803                               0.650E+003
 RTBSE|            1271           3.721                               0.650E+003
 RTBSE|            1272           3.703                               0.650E+003
 RTBSE|            1273           3.676                               0.650E+003
 RTBSE|            1274           3.762                               0.650E+003
 RTBSE|            1275           3.747                               0.650E+003
 RTBSE|            1276           3.735                               0.650E+003
 RTBSE|            1277           3.813                               0.650E+003
 RTBSE|            1278           3.759                               0.650E+003
 RTBSE|            1279           3.708                               0.650E+003
 RTBSE|            1280           3.717                               0.650E+003
 RTBSE|            1281           3.724                               0.650E+003
 RTBSE|            1282           3.826                               0.650E+003
 RTBSE|            1283           3.740                               0.650E+003
 RTBSE|            1284           3.767                               0.650E+003
 RTBSE|            1285           3.853                               0.650E+003
 RTBSE|            1286           3.801                               0.650E+003
 RTBSE|            1287           3.746                               0.650E+003
 RTBSE|            1288           3.694                               0.650E+003
 RTBSE|            1289           3.702                               0.650E+003
 RTBSE|            1290           3.795                               0.650E+003
 RTBSE|            1291           3.750                               0.650E+003
 RTBSE|            1292           3.745                               0.650E+003
 RTBSE|            1293           3.832                               0.650E+003
 RTBSE|            1294           3.731                               0.650E+003
 RTBSE|            1295           3.705                               0.650E+003
 RTBSE|            1296           3.706                               0.650E+003
 RTBSE|            1297           3.720                               0.650E+003
 RTBSE|            1298           3.783                               0.650E+003
 RTBSE|            1299           3.733                               0.650E+003
 RTBSE|            1300           3.710                               0.650E+003
 RTBSE|            1301           3.815                               0.650E+003
 RTBSE|            1302           3.799                               0.650E+003
 RTBSE|            1303           3.724                               0.650E+003
 RTBSE|            1304           3.746                               0.650E+003
 RTBSE|            1305           3.697                               0.650E+003
 RTBSE|            1306           3.782                               0.650E+003
 RTBSE|            1307           3.817                               0.650E+003
 RTBSE|            1308           3.745                               0.650E+003
 RTBSE|            1309           3.931                               0.650E+003
 RTBSE|            1310           3.710                               0.650E+003
 RTBSE|            1311           3.691                               0.650E+003
 RTBSE|            1312           3.678                               0.650E+003
 RTBSE|            1313           3.685                               0.650E+003
 RTBSE|            1314           3.762                               0.650E+003
 RTBSE|            1315           3.714                               0.650E+003
 RTBSE|            1316           3.680                               0.650E+003
 RTBSE|            1317           3.910                               0.650E+003
 RTBSE|            1318           3.763                               0.650E+003
 RTBSE|            1319           3.726                               0.650E+003
 RTBSE|            1320           3.693                               0.650E+003
 RTBSE|            1321           3.689                               0.650E+003
 RTBSE|            1322           3.741                               0.650E+003
 RTBSE|            1323           3.795                               0.650E+003
 RTBSE|            1324           3.809                               0.650E+003
 RTBSE|            1325           3.928                               0.650E+003
 RTBSE|            1326           3.833                               0.650E+003
 RTBSE|            1327           3.758                               0.650E+003
 RTBSE|            1328           3.778                               0.650E+003
 RTBSE|            1329           3.753                               0.650E+003
 RTBSE|            1330           3.857                               0.650E+003
 RTBSE|            1331           3.782                               0.650E+003
 RTBSE|            1332           3.761                               0.650E+003
 RTBSE|            1333           3.845                               0.650E+003
 RTBSE|            1334           3.810                               0.650E+003
 RTBSE|            1335           3.797                               0.650E+003
 RTBSE|            1336           3.773                               0.650E+003
 RTBSE|            1337           3.770                               0.650E+003
 RTBSE|            1338           3.832                               0.650E+003
 RTBSE|            1339           3.880                               0.650E+003
 RTBSE|            1340           3.750                               0.650E+003
 RTBSE|            1341           3.895                               0.650E+003
 RTBSE|            1342           3.713                               0.650E+003
 RTBSE|            1343           3.710                               0.650E+003
 RTBSE|            1344           3.728                               0.650E+003
 RTBSE|            1345           3.754                               0.650E+003
 RTBSE|            1346           3.780                               0.650E+003
 RTBSE|            1347           3.756                               0.650E+003
 RTBSE|            1348           3.774                               0.650E+003
 RTBSE|            1349           3.909                               0.650E+003
 RTBSE|            1350           3.775                               0.650E+003
 RTBSE|            1351           3.775                               0.650E+003
 RTBSE|            1352           3.737                               0.650E+003
 RTBSE|            1353           3.722                               0.650E+003
 RTBSE|            1354           3.806                               0.650E+003
 RTBSE|            1355           3.762                               0.650E+003
 RTBSE|            1356           3.738                               0.650E+003
 RTBSE|            1357           3.833                               0.650E+003
 RTBSE|            1358           3.712                               0.650E+003
 RTBSE|            1359           3.694                               0.650E+003
 RTBSE|            1360           3.696                               0.650E+003
 RTBSE|            1361           3.717                               0.650E+003
 RTBSE|            1362           3.770                               0.650E+003
 RTBSE|            1363           3.743                               0.650E+003
 RTBSE|            1364           3.748                               0.650E+003
 RTBSE|            1365           3.911                               0.650E+003
 RTBSE|            1366           3.727                               0.650E+003
 RTBSE|            1367           3.749                               0.650E+003
 RTBSE|            1368           3.705                               0.650E+003
 RTBSE|            1369           3.698                               0.650E+003
 RTBSE|            1370           3.757                               0.650E+003
 RTBSE|            1371           3.731                               0.650E+003
 RTBSE|            1372           3.767                               0.650E+003
 RTBSE|            1373           3.846                               0.650E+003
 RTBSE|            1374           3.668                               0.650E+003
 RTBSE|            1375           3.724                               0.650E+003
 RTBSE|            1376           3.703                               0.650E+003
 RTBSE|            1377           3.742                               0.650E+003
 RTBSE|            1378           3.815                               0.650E+003
 RTBSE|            1379           3.725                               0.650E+003
 RTBSE|            1380           3.843                               0.650E+003
 RTBSE|            1381           3.872                               0.650E+003
 RTBSE|            1382           3.727                               0.650E+003
 RTBSE|            1383           3.806                               0.650E+003
 RTBSE|            1384           3.721                               0.650E+003
 RTBSE|            1385           3.829                               0.650E+003
 RTBSE|            1386           3.838                               0.650E+003
 RTBSE|            1387           3.857                               0.650E+003
 RTBSE|            1388           3.776                               0.650E+003
 RTBSE|            1389           3.830                               0.650E+003
 RTBSE|            1390           3.753                               0.650E+003
 RTBSE|            1391           3.755                               0.650E+003
 RTBSE|            1392           3.728                               0.650E+003
 RTBSE|            1393           3.815                               0.650E+003
 RTBSE|            1394           3.772                               0.650E+003
 RTBSE|            1395           3.695                               0.650E+003
 RTBSE|            1396           3.809                               0.650E+003
 RTBSE|            1397           3.825                               0.650E+003
 RTBSE|            1398           3.712                               0.650E+003
 RTBSE|            1399           3.732                               0.650E+003
 RTBSE|            1400           3.687                               0.650E+003
 RTBSE|            1401           3.735                               0.650E+003
 RTBSE|            1402           3.764                               0.650E+003
 RTBSE|            1403           3.742                               0.650E+003
 RTBSE|            1404           3.844                               0.650E+003
 RTBSE|            1405           3.794                               0.650E+003
 RTBSE|            1406           3.700                               0.650E+003
 RTBSE|            1407           3.705                               0.650E+003
 RTBSE|            1408           3.694                               0.650E+003
 RTBSE|            1409           3.765                               0.650E+003
 RTBSE|            1410           3.764                               0.650E+003
 RTBSE|            1411           3.709                               0.650E+003
 RTBSE|            1412           3.886                               0.650E+003
 RTBSE|            1413           3.829                               0.650E+003
 RTBSE|            1414           3.794                               0.650E+003
 RTBSE|            1415           3.714                               0.650E+003
 RTBSE|            1416           3.717                               0.650E+003
 RTBSE|            1417           3.748                               0.650E+003
 RTBSE|            1418           3.762                               0.650E+003
 RTBSE|            1419           3.757                               0.650E+003
 RTBSE|            1420           3.821                               0.650E+003
 RTBSE|            1421           3.780                               0.650E+003
 RTBSE|            1422           3.707                               0.650E+003
 RTBSE|            1423           3.723                               0.650E+003
 RTBSE|            1424           3.733                               0.650E+003
 RTBSE|            1425           3.797                               0.650E+003
 RTBSE|            1426           3.724                               0.650E+003
 RTBSE|            1427           3.700                               0.650E+003
 RTBSE|            1428           3.826                               0.650E+003
 RTBSE|            1429           3.809                               0.650E+003
 RTBSE|            1430           3.733                               0.650E+003
 RTBSE|            1431           3.696                               0.650E+003
 RTBSE|            1432           3.715                               0.650E+003
 RTBSE|            1433           3.792                               0.650E+003
 RTBSE|            1434           3.753                               0.650E+003
 RTBSE|            1435           3.716                               0.650E+003
 RTBSE|            1436           3.843                               0.650E+003
 RTBSE|            1437           3.747                               0.650E+003
 RTBSE|            1438           3.698                               0.650E+003
 RTBSE|            1439           3.704                               0.650E+003
 RTBSE|            1440           3.705                               0.650E+003
 RTBSE|            1441           3.797                               0.650E+003
 RTBSE|            1442           3.723                               0.650E+003
 RTBSE|            1443           3.704                               0.650E+003
 RTBSE|            1444           3.883                               0.650E+003
 RTBSE|            1445           3.800                               0.650E+003
 RTBSE|            1446           3.783                               0.650E+003
 RTBSE|            1447           3.728                               0.650E+003
 RTBSE|            1448           3.803                               0.650E+003
 RTBSE|            1449           3.835                               0.650E+003
 RTBSE|            1450           3.858                               0.650E+003
 RTBSE|            1451           3.801                               0.650E+003
 RTBSE|            1452           3.908                               0.650E+003
 RTBSE|            1453           3.815                               0.650E+003
 RTBSE|            1454           3.745                               0.650E+003
 RTBSE|            1455           3.724                               0.650E+003
 RTBSE|            1456           3.695                               0.650E+003
 RTBSE|            1457           3.832                               0.650E+003
 RTBSE|            1458           3.733                               0.650E+003
 RTBSE|            1459           3.713                               0.650E+003
 RTBSE|            1460           3.860                               0.650E+003
 RTBSE|            1461           3.791                               0.650E+003
 RTBSE|            1462           3.757                               0.650E+003
 RTBSE|            1463           3.708                               0.650E+003
 RTBSE|            1464           3.727                               0.650E+003
 RTBSE|            1465           3.823                               0.650E+003
 RTBSE|            1466           3.799                               0.650E+003
 RTBSE|            1467           3.822                               0.650E+003
 RTBSE|            1468           3.878                               0.650E+003
 RTBSE|            1469           3.834                               0.650E+003
 RTBSE|            1470           3.715                               0.650E+003
 RTBSE|            1471           3.708                               0.650E+003
 RTBSE|            1472           3.701                               0.650E+003
 RTBSE|            1473           3.754                               0.650E+003
 RTBSE|            1474           3.723                               0.650E+003
 RTBSE|            1475           3.710                               0.650E+003
 RTBSE|            1476           3.895                               0.650E+003
 RTBSE|            1477           3.773                               0.650E+003
 RTBSE|            1478           3.714                               0.650E+003
 RTBSE|            1479           3.716                               0.650E+003
 RTBSE|            1480           3.674                               0.650E+003
 RTBSE|            1481           3.756                               0.650E+003
 RTBSE|            1482           3.721                               0.650E+003
 RTBSE|            1483           3.726                               0.650E+003
 RTBSE|            1484           3.923                               0.650E+003
 RTBSE|            1485           3.744                               0.650E+003
 RTBSE|            1486           3.702                               0.650E+003
 RTBSE|            1487           3.698                               0.650E+003
 RTBSE|            1488           3.696                               0.650E+003
 RTBSE|            1489           3.748                               0.650E+003
 RTBSE|            1490           3.770                               0.650E+003
 RTBSE|            1491           3.727                               0.650E+003
 RTBSE|            1492           3.919                               0.650E+003
 RTBSE|            1493           3.758                               0.650E+003
 RTBSE|            1494           3.759                               0.650E+003
 RTBSE|            1495           3.683                               0.650E+003
 RTBSE|            1496           3.691                               0.650E+003
 RTBSE|            1497           3.741                               0.650E+003
 RTBSE|            1498           3.717                               0.650E+003
 RTBSE|            1499           3.737                               0.650E+003
 RTBSE|            1500           3.834                               0.650E+003
 RTBSE|            1501           3.691                               0.650E+003
 RTBSE|            1502           3.669                               0.650E+003
 RTBSE|            1503           3.673                               0.650E+003
 RTBSE|            1504           3.661                               0.650E+003
 RTBSE|            1505           3.732                               0.650E+003
 RTBSE|            1506           3.685                               0.650E+003
 RTBSE|            1507           3.716                               0.650E+003
 RTBSE|            1508           3.920                               0.650E+003
 RTBSE|            1509           3.792                               0.650E+003
 RTBSE|            1510           3.760                               0.650E+003
 RTBSE|            1511           3.759                               0.650E+003
 RTBSE|            1512           3.739                               0.650E+003
 RTBSE|            1513           3.738                               0.650E+003
 RTBSE|            1514           3.728                               0.650E+003
 RTBSE|            1515           3.733                               0.650E+003
 RTBSE|            1516           3.919                               0.650E+003
 RTBSE|            1517           3.753                               0.650E+003
 RTBSE|            1518           3.694                               0.650E+003
 RTBSE|            1519           3.734                               0.650E+003
 RTBSE|            1520           3.745                               0.650E+003
 RTBSE|            1521           3.774                               0.650E+003
 RTBSE|            1522           3.748                               0.650E+003
 RTBSE|            1523           3.732                               0.650E+003
 RTBSE|            1524           3.900                               0.650E+003
 RTBSE|            1525           3.817                               0.650E+003
 RTBSE|            1526           3.748                               0.650E+003
 RTBSE|            1527           3.711                               0.650E+003
 RTBSE|            1528           3.691                               0.650E+003
 RTBSE|            1529           3.740                               0.650E+003
 RTBSE|            1530           3.738                               0.650E+003
 RTBSE|            1531           3.737                               0.650E+003
 RTBSE|            1532           3.787                               0.650E+003
 RTBSE|            1533           3.709                               0.650E+003
 RTBSE|            1534           3.675                               0.650E+003
 RTBSE|            1535           3.699                               0.650E+003
 RTBSE|            1536           3.716                               0.650E+003
 RTBSE|            1537           3.755                               0.650E+003
 RTBSE|            1538           3.700                               0.650E+003
 RTBSE|            1539           3.713                               0.650E+003
 RTBSE|            1540           3.848                               0.650E+003
 RTBSE|            1541           3.749                               0.650E+003
 RTBSE|            1542           3.709                               0.650E+003
 RTBSE|            1543           3.703                               0.650E+003
 RTBSE|            1544           3.708                               0.650E+003
 RTBSE|            1545           3.746                               0.650E+003
 RTBSE|            1546           3.711                               0.650E+003
 RTBSE|            1547           3.743                               0.650E+003
 RTBSE|            1548           3.828                               0.650E+003
 RTBSE|            1549           3.701                               0.650E+003
 RTBSE|            1550           3.659                               0.650E+003
 RTBSE|            1551           3.682                               0.650E+003
 RTBSE|            1552           3.717                               0.650E+003
 RTBSE|            1553           3.713                               0.650E+003
 RTBSE|            1554           3.687                               0.650E+003
 RTBSE|            1555           3.679                               0.650E+003
 RTBSE|            1556           3.852                               0.650E+003
 RTBSE|            1557           3.736                               0.650E+003
 RTBSE|            1558           3.718                               0.650E+003
 RTBSE|            1559           3.680                               0.650E+003
 RTBSE|            1560           3.693                               0.650E+003
 RTBSE|            1561           3.744                               0.650E+003
 RTBSE|            1562           3.722                               0.650E+003
 RTBSE|            1563           3.699                               0.650E+003
 RTBSE|            1564           3.852                               0.650E+003
 RTBSE|            1565           3.739                               0.650E+003
 RTBSE|            1566           3.684                               0.650E+003
 RTBSE|            1567           3.708                               0.650E+003
 RTBSE|            1568           3.727                               0.650E+003
 RTBSE|            1569           3.766                               0.650E+003
 RTBSE|            1570           3.710                               0.650E+003
 RTBSE|            1571           3.698                               0.650E+003
 RTBSE|            1572           3.898                               0.650E+003
 RTBSE|            1573           3.768                               0.650E+003
 RTBSE|            1574           3.736                               0.650E+003
 RTBSE|            1575           3.708                               0.650E+003
 RTBSE|            1576           3.729                               0.650E+003
 RTBSE|            1577           3.736                               0.650E+003
 RTBSE|            1578           3.763                               0.650E+003
 RTBSE|            1579           3.740                               0.650E+003
 RTBSE|            1580           3.882                               0.650E+003
 RTBSE|            1581           3.705                               0.650E+003
 RTBSE|            1582           3.709                               0.650E+003
 RTBSE|            1583           3.691                               0.650E+003
 RTBSE|            1584           3.691                               0.650E+003
 RTBSE|            1585           3.734                               0.650E+003
 RTBSE|            1586           3.758                               0.650E+003
 RTBSE|            1587           3.731                               0.650E+003
 RTBSE|            1588           3.884                               0.650E+003
 RTBSE|            1589           3.757                               0.650E+003
 RTBSE|            1590           3.720                               0.650E+003
 RTBSE|            1591           3.706                               0.650E+003
 RTBSE|            1592           3.698                               0.650E+003
 RTBSE|            1593           3.752                               0.650E+003
 RTBSE|            1594           3.822                               0.650E+003
 RTBSE|            1595           3.782                               0.650E+003
 RTBSE|            1596           3.870                               0.650E+003
 RTBSE|            1597           3.752                               0.650E+003
 RTBSE|            1598           3.701                               0.650E+003
 RTBSE|            1599           3.699                               0.650E+003
 RTBSE|            1600           3.723                               0.650E+003
 RTBSE|            1601           3.766                               0.650E+003
 RTBSE|            1602           3.727                               0.650E+003
 RTBSE|            1603           3.740                               0.650E+003
 RTBSE|            1604           3.829                               0.650E+003
 RTBSE|            1605           3.810                               0.650E+003
 RTBSE|            1606           3.776                               0.650E+003
 RTBSE|            1607           3.725                               0.650E+003
 RTBSE|            1608           3.732                               0.650E+003
 RTBSE|            1609           3.784                               0.650E+003
 RTBSE|            1610           3.800                               0.650E+003
 RTBSE|            1611           3.794                               0.650E+003
 RTBSE|            1612           3.880                               0.650E+003
 RTBSE|            1613           3.737                               0.650E+003
 RTBSE|            1614           3.702                               0.650E+003
 RTBSE|            1615           3.710                               0.650E+003
 RTBSE|            1616           3.755                               0.650E+003
 RTBSE|            1617           3.823                               0.650E+003
 RTBSE|            1618           3.781                               0.650E+003
 RTBSE|            1619           3.835                               0.650E+003
 RTBSE|            1620           3.922                               0.650E+003
 RTBSE|            1621           3.826                               0.650E+003
 RTBSE|            1622           3.806                               0.650E+003
 RTBSE|            1623           3.776                               0.650E+003
 RTBSE|            1624           3.800                               0.650E+003
 RTBSE|            1625           3.797                               0.650E+003
 RTBSE|            1626           3.834                               0.650E+003
 RTBSE|            1627           3.956                               0.650E+003
 RTBSE|            1628           3.852                               0.650E+003
 RTBSE|            1629           3.784                               0.650E+003
 RTBSE|            1630           3.712                               0.650E+003
 RTBSE|            1631           3.724                               0.650E+003
 RTBSE|            1632           3.788                               0.650E+003
 RTBSE|            1633           3.768                               0.650E+003
 RTBSE|            1634           3.731                               0.650E+003
 RTBSE|            1635           3.856                               0.650E+003
 RTBSE|            1636           3.783                               0.650E+003
 RTBSE|            1637           3.703                               0.650E+003
 RTBSE|            1638           3.711                               0.650E+003
 RTBSE|            1639           3.696                               0.650E+003
 RTBSE|            1640           3.796                               0.650E+003
 RTBSE|            1641           3.753                               0.650E+003
 RTBSE|            1642           3.766                               0.650E+003
 RTBSE|            1643           3.882                               0.650E+003
 RTBSE|            1644           3.786                               0.650E+003
 RTBSE|            1645           3.706                               0.650E+003
 RTBSE|            1646           3.733                               0.650E+003
 RTBSE|            1647           3.686                               0.650E+003
 RTBSE|            1648           3.767                               0.650E+003
 RTBSE|            1649           3.720                               0.650E+003
 RTBSE|            1650           3.710                               0.650E+003
 RTBSE|            1651           3.834                               0.650E+003
 RTBSE|            1652           3.775                               0.650E+003
 RTBSE|            1653           3.665                               0.650E+003
 RTBSE|            1654           3.740                               0.650E+003
 RTBSE|            1655           3.676                               0.650E+003
 RTBSE|            1656           3.758                               0.650E+003
 RTBSE|            1657           3.700                               0.650E+003
 RTBSE|            1658           3.714                               0.650E+003
 RTBSE|            1659           3.858                               0.650E+003
 RTBSE|            1660           3.730                               0.650E+003
 RTBSE|            1661           3.742                               0.650E+003
 RTBSE|            1662           3.720                               0.650E+003
 RTBSE|            1663           3.676                               0.650E+003
 RTBSE|            1664           3.797                               0.650E+003
 RTBSE|            1665           3.716                               0.650E+003
 RTBSE|            1666           3.710                               0.650E+003
 RTBSE|            1667           3.821                               0.650E+003
 RTBSE|            1668           3.841                               0.650E+003
 RTBSE|            1669           3.729                               0.650E+003
 RTBSE|            1670           3.778                               0.650E+003
 RTBSE|            1671           3.738                               0.650E+003
 RTBSE|            1672           3.788                               0.650E+003
 RTBSE|            1673           3.806                               0.650E+003
 RTBSE|            1674           3.824                               0.650E+003
 RTBSE|            1675           3.999                               0.650E+003
 RTBSE|            1676           3.805                               0.650E+003
 RTBSE|            1677           3.748                               0.650E+003
 RTBSE|            1678           3.778                               0.650E+003
 RTBSE|            1679           3.751                               0.650E+003
 RTBSE|            1680           3.817                               0.650E+003
 RTBSE|            1681           3.769                               0.650E+003
 RTBSE|            1682           3.708                               0.650E+003
 RTBSE|            1683           3.859                               0.650E+003
 RTBSE|            1684           3.811                               0.650E+003
 RTBSE|            1685           3.783                               0.650E+003
 RTBSE|            1686           3.775                               0.650E+003
 RTBSE|            1687           3.718                               0.650E+003
 RTBSE|            1688           3.727                               0.650E+003
 RTBSE|            1689           3.745                               0.650E+003
 RTBSE|            1690           3.709                               0.650E+003
 RTBSE|            1691           3.789                               0.650E+003
 RTBSE|            1692           3.707                               0.650E+003
 RTBSE|            1693           3.672                               0.650E+003
 RTBSE|            1694           3.683                               0.650E+003
 RTBSE|            1695           3.691                               0.650E+003
 RTBSE|            1696           3.773                               0.650E+003
 RTBSE|            1697           3.704                               0.650E+003
 RTBSE|            1698           3.694                               0.650E+003
 RTBSE|            1699           3.806                               0.650E+003
 RTBSE|            1700           3.795                               0.650E+003
 RTBSE|            1701           3.840                               0.650E+003
 RTBSE|            1702           3.740                               0.650E+003
 RTBSE|            1703           3.683                               0.650E+003
 RTBSE|            1704           3.740                               0.650E+003
 RTBSE|            1705           3.745                               0.650E+003
 RTBSE|            1706           3.702                               0.650E+003
 RTBSE|            1707           3.818                               0.650E+003
 RTBSE|            1708           3.812                               0.650E+003
 RTBSE|            1709           3.672                               0.650E+003
 RTBSE|            1710           3.667                               0.650E+003
 RTBSE|            1711           3.674                               0.650E+003
 RTBSE|            1712           3.784                               0.650E+003
 RTBSE|            1713           3.680                               0.650E+003
 RTBSE|            1714           3.674                               0.650E+003
 RTBSE|            1715           3.875                               0.650E+003
 RTBSE|            1716           3.769                               0.650E+003
 RTBSE|            1717           3.701                               0.650E+003
 RTBSE|            1718           3.768                               0.650E+003
 RTBSE|            1719           3.682                               0.650E+003
 RTBSE|            1720           3.768                               0.650E+003
 RTBSE|            1721           3.733                               0.650E+003
 RTBSE|            1722           3.706                               0.650E+003
 RTBSE|            1723           3.816                               0.650E+003
 RTBSE|            1724           3.708                               0.650E+003
 RTBSE|            1725           3.684                               0.650E+003
 RTBSE|            1726           3.709                               0.650E+003
 RTBSE|            1727           3.679                               0.650E+003
 RTBSE|            1728           3.788                               0.650E+003
 RTBSE|            1729           3.692                               0.650E+003
 RTBSE|            1730           3.686                               0.650E+003
 RTBSE|            1731           3.850                               0.650E+003
 RTBSE|            1732           3.778                               0.650E+003
 RTBSE|            1733           3.711                               0.650E+003
 RTBSE|            1734           3.748                               0.650E+003
 RTBSE|            1735           3.717                               0.650E+003
 RTBSE|            1736           3.772                               0.650E+003
 RTBSE|            1737           3.720                               0.650E+003
 RTBSE|            1738           3.778                               0.650E+003
 RTBSE|            1739           3.837                               0.650E+003
 RTBSE|            1740           3.756                               0.650E+003
 RTBSE|            1741           3.684                               0.650E+003
 RTBSE|            1742           3.678                               0.650E+003
 RTBSE|            1743           3.663                               0.650E+003
 RTBSE|            1744           3.782                               0.650E+003
 RTBSE|            1745           3.698                               0.650E+003
 RTBSE|            1746           3.676                               0.650E+003
 RTBSE|            1747           3.860                               0.650E+003
 RTBSE|            1748           3.747                               0.650E+003
 RTBSE|            1749           3.682                               0.650E+003
 RTBSE|            1750           3.749                               0.650E+003
 RTBSE|            1751           3.689                               0.650E+003
 RTBSE|            1752           3.765                               0.650E+003
 RTBSE|            1753           3.701                               0.650E+003
 RTBSE|            1754           3.765                               0.650E+003
 RTBSE|            1755           3.807                               0.650E+003
 RTBSE|            1756           3.741                               0.650E+003
 RTBSE|            1757           3.690                               0.650E+003
 RTBSE|            1758           3.660                               0.650E+003
 RTBSE|            1759           3.682                               0.650E+003
 RTBSE|            1760           3.726                               0.650E+003
 RTBSE|            1761           3.709                               0.650E+003
 RTBSE|            1762           3.706                               0.650E+003
 RTBSE|            1763           3.848                               0.650E+003
 RTBSE|            1764           3.808                               0.650E+003
 RTBSE|            1765           3.682                               0.650E+003
 RTBSE|            1766           3.767                               0.650E+003
 RTBSE|            1767           3.701                               0.650E+003
 RTBSE|            1768           3.775                               0.650E+003
 RTBSE|            1769           3.690                               0.650E+003
 RTBSE|            1770           3.715                               0.650E+003
 RTBSE|            1771           3.895                               0.650E+003
 RTBSE|            1772           3.745                               0.650E+003
 RTBSE|            1773           3.688                               0.650E+003
 RTBSE|            1774           3.704                               0.650E+003
 RTBSE|            1775           3.709                               0.650E+003
 RTBSE|            1776           3.791                               0.650E+003
 RTBSE|            1777           3.715                               0.650E+003
 RTBSE|            1778           3.700                               0.650E+003
 RTBSE|            1779           3.867                               0.650E+003
 RTBSE|            1780           3.789                               0.650E+003
 RTBSE|            1781           3.700                               0.650E+003
 RTBSE|            1782           3.743                               0.650E+003
 RTBSE|            1783           3.715                               0.650E+003
 RTBSE|            1784           3.785                               0.650E+003
 RTBSE|            1785           3.707                               0.650E+003
 RTBSE|            1786           3.782                               0.650E+003
 RTBSE|            1787           3.896                               0.650E+003
 RTBSE|            1788           3.749                               0.650E+003
 RTBSE|            1789           3.709                               0.650E+003
 RTBSE|            1790           3.718                               0.650E+003
 RTBSE|            1791           3.697                               0.650E+003
 RTBSE|            1792           3.774                               0.650E+003
 RTBSE|            1793           3.749                               0.650E+003
 RTBSE|            1794           3.687                               0.650E+003
 RTBSE|            1795           3.854                               0.650E+003
 RTBSE|            1796           3.740                               0.650E+003
 RTBSE|            1797           3.764                               0.650E+003
 RTBSE|            1798           3.780                               0.650E+003
 RTBSE|            1799           3.737                               0.650E+003
 RTBSE|            1800           3.812                               0.650E+003
 RTBSE|            1801           3.758                               0.650E+003
 RTBSE|            1802           3.804                               0.650E+003
 RTBSE|            1803           3.915                               0.650E+003
 RTBSE|            1804           3.779                               0.650E+003
 RTBSE|            1805           3.746                               0.650E+003
 RTBSE|            1806           3.734                               0.650E+003
 RTBSE|            1807           3.769                               0.650E+003
 RTBSE|            1808           3.814                               0.650E+003
 RTBSE|            1809           3.683                               0.650E+003
 RTBSE|            1810           3.687                               0.650E+003
 RTBSE|            1811           3.848                               0.650E+003
 RTBSE|            1812           3.718                               0.650E+003
 RTBSE|            1813           3.691                               0.650E+003
 RTBSE|            1814           3.707                               0.650E+003
 RTBSE|            1815           3.682                               0.650E+003
 RTBSE|            1816           3.722                               0.650E+003
 RTBSE|            1817           3.692                               0.650E+003
 RTBSE|            1818           3.787                               0.650E+003
 RTBSE|            1819           3.806                               0.650E+003
 RTBSE|            1820           3.714                               0.650E+003
 RTBSE|            1821           3.689                               0.650E+003
 RTBSE|            1822           3.687                               0.650E+003
 RTBSE|            1823           3.668                               0.650E+003
 RTBSE|            1824           3.746                               0.650E+003
 RTBSE|            1825           3.698                               0.650E+003
 RTBSE|            1826           3.720                               0.650E+003
 RTBSE|            1827           3.839                               0.650E+003
 RTBSE|            1828           3.732                               0.650E+003
 RTBSE|            1829           3.691                               0.650E+003
 RTBSE|            1830           3.716                               0.650E+003
 RTBSE|            1831           3.657                               0.650E+003
 RTBSE|            1832           3.725                               0.650E+003
 RTBSE|            1833           3.720                               0.650E+003
 RTBSE|            1834           3.763                               0.650E+003
 RTBSE|            1835           3.923                               0.650E+003
 RTBSE|            1836           3.705                               0.650E+003
 RTBSE|            1837           3.693                               0.650E+003
 RTBSE|            1838           3.713                               0.650E+003
 RTBSE|            1839           3.689                               0.650E+003
 RTBSE|            1840           3.740                               0.650E+003
 RTBSE|            1841           3.718                               0.650E+003
 RTBSE|            1842           3.732                               0.650E+003
 RTBSE|            1843           3.817                               0.650E+003
 RTBSE|            1844           3.737                               0.650E+003
 RTBSE|            1845           3.677                               0.650E+003
 RTBSE|            1846           3.731                               0.650E+003
 RTBSE|            1847           3.701                               0.650E+003
 RTBSE|            1848           3.742                               0.650E+003
 RTBSE|            1849           3.720                               0.650E+003
 RTBSE|            1850           3.754                               0.650E+003
 RTBSE|            1851           3.844                               0.650E+003
 RTBSE|            1852           3.712                               0.650E+003
 RTBSE|            1853           3.743                               0.650E+003
 RTBSE|            1854           3.720                               0.650E+003
 RTBSE|            1855           3.724                               0.650E+003
 RTBSE|            1856           3.778                               0.650E+003
 RTBSE|            1857           3.775                               0.650E+003
 RTBSE|            1858           3.787                               0.650E+003
 RTBSE|            1859           3.979                               0.650E+003
 RTBSE|            1860           3.851                               0.650E+003
 RTBSE|            1861           3.747                               0.650E+003
 RTBSE|            1862           3.805                               0.650E+003
 RTBSE|            1863           3.774                               0.650E+003
 RTBSE|            1864           3.812                               0.650E+003
 RTBSE|            1865           3.790                               0.650E+003
 RTBSE|            1866           3.737                               0.650E+003
 RTBSE|            1867           3.861                               0.650E+003
 RTBSE|            1868           3.745                               0.650E+003
 RTBSE|            1869           3.701                               0.650E+003
 RTBSE|            1870           3.720                               0.650E+003
 RTBSE|            1871           3.708                               0.650E+003
 RTBSE|            1872           3.760                               0.650E+003
 RTBSE|            1873           3.739                               0.650E+003
 RTBSE|            1874           3.752                               0.650E+003
 RTBSE|            1875           3.845                               0.650E+003
 RTBSE|            1876           3.761                               0.650E+003
 RTBSE|            1877           3.672                               0.650E+003
 RTBSE|            1878           3.733                               0.650E+003
 RTBSE|            1879           3.697                               0.650E+003
 RTBSE|            1880           3.724                               0.650E+003
 RTBSE|            1881           3.781                               0.650E+003
 RTBSE|            1882           3.752                               0.650E+003
 RTBSE|            1883           3.832                               0.650E+003
 RTBSE|            1884           3.655                               0.650E+003
 RTBSE|            1885           3.691                               0.650E+003
 RTBSE|            1886           3.658                               0.650E+003
 RTBSE|            1887           3.678                               0.650E+003
 RTBSE|            1888           3.746                               0.650E+003
 RTBSE|            1889           3.715                               0.650E+003
 RTBSE|            1890           3.706                               0.650E+003
 RTBSE|            1891           3.892                               0.650E+003
 RTBSE|            1892           3.748                               0.650E+003
 RTBSE|            1893           3.679                               0.650E+003
 RTBSE|            1894           3.729                               0.650E+003
 RTBSE|            1895           3.684                               0.650E+003
 RTBSE|            1896           3.774                               0.650E+003
 RTBSE|            1897           3.666                               0.650E+003
 RTBSE|            1898           3.793                               0.650E+003
 RTBSE|            1899           3.823                               0.650E+003
 RTBSE|            1900           3.724                               0.650E+003
 RTBSE|            1901           3.757                               0.650E+003
 RTBSE|            1902           3.718                               0.650E+003
 RTBSE|            1903           3.679                               0.650E+003
 RTBSE|            1904           3.776                               0.650E+003
 RTBSE|            1905           3.726                               0.650E+003
 RTBSE|            1906           3.714                               0.650E+003
 RTBSE|            1907           3.811                               0.650E+003
 RTBSE|            1908           3.748                               0.650E+003
 RTBSE|            1909           3.736                               0.650E+003
 RTBSE|            1910           3.778                               0.650E+003
 RTBSE|            1911           3.720                               0.650E+003
 RTBSE|            1912           3.743                               0.650E+003
 RTBSE|            1913           3.689                               0.650E+003
 RTBSE|            1914           3.793                               0.650E+003
 RTBSE|            1915           3.805                               0.650E+003
 RTBSE|            1916           3.682                               0.650E+003
 RTBSE|            1917           3.662                               0.650E+003
 RTBSE|            1918           3.665                               0.650E+003
 RTBSE|            1919           3.690                               0.650E+003
 RTBSE|            1920           3.845                               0.650E+003
 RTBSE|            1921           3.693                               0.650E+003
 RTBSE|            1922           3.713                               0.650E+003
 RTBSE|            1923           3.812                               0.650E+003
 RTBSE|            1924           3.741                               0.650E+003
 RTBSE|            1925           3.679                               0.650E+003
 RTBSE|            1926           3.708                               0.650E+003
 RTBSE|            1927           3.718                               0.650E+003
 RTBSE|            1928           3.769                               0.650E+003
 RTBSE|            1929           3.715                               0.650E+003
 RTBSE|            1930           3.763                               0.650E+003
 RTBSE|            1931           3.912                               0.650E+003
 RTBSE|            1932           3.717                               0.650E+003
 RTBSE|            1933           3.703                               0.650E+003
 RTBSE|            1934           3.692                               0.650E+003
 RTBSE|            1935           3.705                               0.650E+003
 RTBSE|            1936           3.765                               0.650E+003
 RTBSE|            1937           3.701                               0.650E+003
 RTBSE|            1938           3.724                               0.650E+003
 RTBSE|            1939           3.798                               0.650E+003
 RTBSE|            1940           3.789                               0.650E+003
 RTBSE|            1941           3.712                               0.650E+003
 RTBSE|            1942           3.768                               0.650E+003
 RTBSE|            1943           3.761                               0.650E+003
 RTBSE|            1944           3.760                               0.650E+003
 RTBSE|            1945           3.724                               0.650E+003
 RTBSE|            1946           3.836                               0.650E+003
 RTBSE|            1947           3.883                               0.650E+003
 RTBSE|            1948           3.710                               0.650E+003
 RTBSE|            1949           3.739                               0.650E+003
 RTBSE|            1950           3.696                               0.650E+003
 RTBSE|            1951           3.715                               0.650E+003
 RTBSE|            1952           3.778                               0.650E+003
 RTBSE|            1953           3.707                               0.650E+003
 RTBSE|            1954           3.801                               0.650E+003
 RTBSE|            1955           3.989                               0.650E+003
 RTBSE|            1956           3.792                               0.650E+003
 RTBSE|            1957           3.697                               0.650E+003
 RTBSE|            1958           3.751                               0.650E+003
 RTBSE|            1959           3.720                               0.650E+003
 RTBSE|            1960           3.764                               0.650E+003
 RTBSE|            1961           3.798                               0.650E+003
 RTBSE|            1962           3.787                               0.650E+003
 RTBSE|            1963           3.810                               0.650E+003
 RTBSE|            1964           3.714                               0.650E+003
 RTBSE|            1965           3.710                               0.650E+003
 RTBSE|            1966           3.728                               0.650E+003
 RTBSE|            1967           3.726                               0.650E+003
 RTBSE|            1968           3.791                               0.650E+003
 RTBSE|            1969           3.690                               0.650E+003
 RTBSE|            1970           3.753                               0.650E+003
 RTBSE|            1971           3.881                               0.650E+003
 RTBSE|            1972           3.798                               0.650E+003
 RTBSE|            1973           3.720                               0.650E+003
 RTBSE|            1974           3.736                               0.650E+003
 RTBSE|            1975           3.788                               0.650E+003
 RTBSE|            1976           3.702                               0.650E+003
 RTBSE|            1977           3.726                               0.650E+003
 RTBSE|            1978           3.798                               0.650E+003
 RTBSE|            1979           3.789                               0.650E+003
 RTBSE|            1980           3.696                               0.650E+003
 RTBSE|            1981           3.687                               0.650E+003
 RTBSE|            1982           3.699                               0.650E+003
 RTBSE|            1983           3.762                               0.650E+003
 RTBSE|            1984           3.736                               0.650E+003
 RTBSE|            1985           3.738                               0.650E+003
 RTBSE|            1986           3.807                               0.650E+003
 RTBSE|            1987           3.838                               0.650E+003
 RTBSE|            1988           3.736                               0.650E+003
 RTBSE|            1989           3.687                               0.650E+003
 RTBSE|            1990           3.724                               0.650E+003
 RTBSE|            1991           3.765                               0.650E+003
 RTBSE|            1992           3.719                               0.650E+003
 RTBSE|            1993           3.717                               0.650E+003
 RTBSE|            1994           3.772                               0.650E+003
 RTBSE|            1995           3.809                               0.650E+003
 RTBSE|            1996           3.686                               0.650E+003
 RTBSE|            1997           3.695                               0.650E+003
 RTBSE|            1998           3.684                               0.650E+003
 RTBSE|            1999           3.771                               0.650E+003
 RTBSE|            2000           3.698                               0.650E+003
 RTBSE|            2001           3.700                               0.650E+003
 RTBSE|            2002           3.817                               0.650E+003
 RTBSE|            2003           3.741                               0.650E+003
 RTBSE|            2004           3.785                               0.650E+003
 RTBSE|            2005           3.700                               0.650E+003
 RTBSE|            2006           3.730                               0.650E+003
 RTBSE|            2007           3.795                               0.650E+003
 RTBSE|            2008           3.718                               0.650E+003
 RTBSE|            2009           3.676                               0.650E+003
 RTBSE|            2010           3.853                               0.650E+003
 RTBSE|            2011           3.817                               0.650E+003
 RTBSE|            2012           3.694                               0.650E+003
 RTBSE|            2013           3.709                               0.650E+003
 RTBSE|            2014           3.717                               0.650E+003
 RTBSE|            2015           3.759                               0.650E+003
 RTBSE|            2016           3.716                               0.650E+003
 RTBSE|            2017           3.684                               0.650E+003
 RTBSE|            2018           3.761                               0.650E+003
 RTBSE|            2019           3.777                               0.650E+003
 RTBSE|            2020           3.752                               0.650E+003
 RTBSE|            2021           3.677                               0.650E+003
 RTBSE|            2022           3.734                               0.650E+003
 RTBSE|            2023           3.763                               0.650E+003
 RTBSE|            2024           3.715                               0.650E+003
 RTBSE|            2025           3.685                               0.650E+003
 RTBSE|            2026           3.844                               0.650E+003
 RTBSE|            2027           3.811                               0.650E+003
 RTBSE|            2028           3.693                               0.650E+003
 RTBSE|            2029           3.682                               0.650E+003
 RTBSE|            2030           3.696                               0.650E+003
 RTBSE|            2031           3.783                               0.650E+003
 RTBSE|            2032           3.732                               0.650E+003
 RTBSE|            2033           3.735                               0.650E+003
 RTBSE|            2034           3.751                               0.650E+003
 RTBSE|            2035           3.782                               0.650E+003
 RTBSE|            2036           3.786                               0.650E+003
 RTBSE|            2037           3.679                               0.650E+003
 RTBSE|            2038           3.734                               0.650E+003
 RTBSE|            2039           3.743                               0.650E+003
 RTBSE|            2040           3.704                               0.650E+003
 RTBSE|            2041           3.723                               0.650E+003
 RTBSE|            2042           3.830                               0.650E+003
 RTBSE|            2043           3.817                               0.650E+003
 RTBSE|            2044           3.724                               0.650E+003
 RTBSE|            2045           3.721                               0.650E+003
 RTBSE|            2046           3.719                               0.650E+003
 RTBSE|            2047           3.773                               0.650E+003
 RTBSE|            2048           3.747                               0.650E+003
 RTBSE|            2049           3.682                               0.650E+003
 RTBSE|            2050           3.732                               0.650E+003
 RTBSE|            2051           3.775                               0.650E+003
 RTBSE|            2052           3.720                               0.650E+003
 RTBSE|            2053           3.669                               0.650E+003
 RTBSE|            2054           3.706                               0.650E+003
 RTBSE|            2055           3.750                               0.650E+003
 RTBSE|            2056           3.713                               0.650E+003
 RTBSE|            2057           3.669                               0.650E+003
 RTBSE|            2058           3.799                               0.650E+003
 RTBSE|            2059           3.834                               0.650E+003
 RTBSE|            2060           3.698                               0.650E+003
 RTBSE|            2061           3.678                               0.650E+003
 RTBSE|            2062           3.695                               0.650E+003
 RTBSE|            2063           3.742                               0.650E+003
 RTBSE|            2064           3.712                               0.650E+003
 RTBSE|            2065           3.685                               0.650E+003
 RTBSE|            2066           3.808                               0.650E+003
 RTBSE|            2067           3.740                               0.650E+003
 RTBSE|            2068           3.704                               0.650E+003
 RTBSE|            2069           3.727                               0.650E+003
 RTBSE|            2070           3.738                               0.650E+003
 RTBSE|            2071           3.769                               0.650E+003
 RTBSE|            2072           3.717                               0.650E+003
 RTBSE|            2073           3.673                               0.650E+003
 RTBSE|            2074           3.838                               0.650E+003
 RTBSE|            2075           3.780                               0.650E+003
 RTBSE|            2076           3.733                               0.650E+003
 RTBSE|            2077           3.674                               0.650E+003
 RTBSE|            2078           3.677                               0.650E+003
 RTBSE|            2079           3.699                               0.650E+003
 RTBSE|            2080           3.756                               0.650E+003
 RTBSE|            2081           3.669                               0.650E+003
 RTBSE|            2082           3.729                               0.650E+003
 RTBSE|            2083           3.773                               0.650E+003
 RTBSE|            2084           3.659                               0.650E+003
 RTBSE|            2085           3.722                               0.650E+003
 RTBSE|            2086           3.702                               0.650E+003
 RTBSE|            2087           3.667                               0.650E+003
 RTBSE|            2088           3.747                               0.650E+003
 RTBSE|            2089           3.697                               0.650E+003
 RTBSE|            2090           3.792                               0.650E+003
 RTBSE|            2091           3.826                               0.650E+003
 RTBSE|            2092           3.651                               0.650E+003
 RTBSE|            2093           3.651                               0.650E+003
 RTBSE|            2094           3.679                               0.650E+003
 RTBSE|            2095           3.672                               0.650E+003
 RTBSE|            2096           3.733                               0.650E+003
 RTBSE|            2097           3.699                               0.650E+003
 RTBSE|            2098           3.729                               0.650E+003
 RTBSE|            2099           3.833                               0.650E+003
 RTBSE|            2100           3.714                               0.650E+003
 RTBSE|            2101           3.765                               0.650E+003
 RTBSE|            2102           3.736                               0.650E+003
 RTBSE|            2103           3.765                               0.650E+003
 RTBSE|            2104           3.789                               0.650E+003
 RTBSE|            2105           3.701                               0.650E+003
 RTBSE|            2106           3.844                               0.650E+003
 RTBSE|            2107           3.836                               0.650E+003
 RTBSE|            2108           3.707                               0.650E+003
 RTBSE|            2109           3.706                               0.650E+003
 RTBSE|            2110           3.672                               0.650E+003
 RTBSE|            2111           3.698                               0.650E+003
 RTBSE|            2112           3.739                               0.650E+003
 RTBSE|            2113           3.699                               0.650E+003
 RTBSE|            2114           3.840                               0.650E+003
 RTBSE|            2115           3.840                               0.650E+003
 RTBSE|            2116           3.726                               0.650E+003
 RTBSE|            2117           3.764                               0.650E+003
 RTBSE|            2118           3.731                               0.650E+003
 RTBSE|            2119           3.700                               0.650E+003
 RTBSE|            2120           3.744                               0.650E+003
 RTBSE|            2121           3.687                               0.650E+003
 RTBSE|            2122           3.819                               0.650E+003
 RTBSE|            2123           3.855                               0.650E+003
 RTBSE|            2124           3.738                               0.650E+003
 RTBSE|            2125           3.689                               0.650E+003
 RTBSE|            2126           3.685                               0.650E+003
 RTBSE|            2127           3.699                               0.650E+003
 RTBSE|            2128           3.748                               0.650E+003
 RTBSE|            2129           3.693                               0.650E+003
 RTBSE|            2130           3.800                               0.650E+003
 RTBSE|            2131           3.850                               0.650E+003
 RTBSE|            2132           3.731                               0.650E+003
 RTBSE|            2133           3.739                               0.650E+003
 RTBSE|            2134           3.752                               0.650E+003
 RTBSE|            2135           3.734                               0.650E+003
 RTBSE|            2136           3.738                               0.650E+003
 RTBSE|            2137           3.727                               0.650E+003
 RTBSE|            2138           3.817                               0.650E+003
 RTBSE|            2139           3.917                               0.650E+003
 RTBSE|            2140           3.849                               0.650E+003
 RTBSE|            2141           3.751                               0.650E+003
 RTBSE|            2142           3.760                               0.650E+003
 RTBSE|            2143           3.792                               0.650E+003
 RTBSE|            2144           3.801                               0.650E+003
 RTBSE|            2145           3.723                               0.650E+003
 RTBSE|            2146           3.911                               0.650E+003
 RTBSE|            2147           3.824                               0.650E+003
 RTBSE|            2148           3.723                               0.650E+003
 RTBSE|            2149           3.851                               0.650E+003
 RTBSE|            2150           3.747                               0.650E+003
 RTBSE|            2151           3.804                               0.650E+003
 RTBSE|            2152           3.728                               0.650E+003
 RTBSE|            2153           3.703                               0.650E+003
 RTBSE|            2154           3.885                               0.650E+003
 RTBSE|            2155           3.807                               0.650E+003
 RTBSE|            2156           3.734                               0.650E+003
 RTBSE|            2157           3.685                               0.650E+003
 RTBSE|            2158           3.715                               0.650E+003
 RTBSE|            2159           3.767                               0.650E+003
 RTBSE|            2160           3.757                               0.650E+003
 RTBSE|            2161           3.710                               0.650E+003
 RTBSE|            2162           3.875                               0.650E+003
 RTBSE|            2163           3.742                               0.650E+003
 RTBSE|            2164           3.736                               0.650E+003
 RTBSE|            2165           3.708                               0.650E+003
 RTBSE|            2166           3.733                               0.650E+003
 RTBSE|            2167           3.777                               0.650E+003
 RTBSE|            2168           3.707                               0.650E+003
 RTBSE|            2169           3.716                               0.650E+003
 RTBSE|            2170           3.878                               0.650E+003
 RTBSE|            2171           3.799                               0.650E+003
 RTBSE|            2172           3.679                               0.650E+003
 RTBSE|            2173           3.687                               0.650E+003
 RTBSE|            2174           3.687                               0.650E+003
 RTBSE|            2175           3.775                               0.650E+003
 RTBSE|            2176           3.720                               0.650E+003
 RTBSE|            2177           3.695                               0.650E+003
 RTBSE|            2178           3.789                               0.650E+003
 RTBSE|            2179           3.783                               0.650E+003
 RTBSE|            2180           3.734                               0.650E+003
 RTBSE|            2181           3.683                               0.650E+003
 RTBSE|            2182           3.729                               0.650E+003
 RTBSE|            2183           3.801                               0.650E+003
 RTBSE|            2184           3.701                               0.650E+003
 RTBSE|            2185           3.681                               0.650E+003
 RTBSE|            2186           3.910                               0.650E+003
 RTBSE|            2187           3.763                               0.650E+003
 RTBSE|            2188           3.702                               0.650E+003
 RTBSE|            2189           3.732                               0.650E+003
 RTBSE|            2190           3.713                               0.650E+003
 RTBSE|            2191           3.811                               0.650E+003
 RTBSE|            2192           3.695                               0.650E+003
 RTBSE|            2193           3.692                               0.650E+003
 RTBSE|            2194           3.783                               0.650E+003
 RTBSE|            2195           3.735                               0.650E+003
 RTBSE|            2196           3.753                               0.650E+003
 RTBSE|            2197           3.684                               0.650E+003
 RTBSE|            2198           3.732                               0.650E+003
 RTBSE|            2199           3.788                               0.650E+003
 RTBSE|            2200           3.722                               0.650E+003
 RTBSE|            2201           3.698                               0.650E+003
 RTBSE|            2202           3.858                               0.650E+003
 RTBSE|            2203           3.780                               0.650E+003
 RTBSE|            2204           3.715                               0.650E+003
 RTBSE|            2205           3.678                               0.650E+003
 RTBSE|            2206           3.680                               0.650E+003
 RTBSE|            2207           3.788                               0.650E+003
 RTBSE|            2208           3.701                               0.650E+003
 RTBSE|            2209           3.694                               0.650E+003
 RTBSE|            2210           3.855                               0.650E+003
 RTBSE|            2211           3.747                               0.650E+003
 RTBSE|            2212           3.698                               0.650E+003
 RTBSE|            2213           3.738                               0.650E+003
 RTBSE|            2214           3.745                               0.650E+003
 RTBSE|            2215           3.792                               0.650E+003
 RTBSE|            2216           3.709                               0.650E+003
 RTBSE|            2217           3.695                               0.650E+003
 RTBSE|            2218           3.878                               0.650E+003
 RTBSE|            2219           3.746                               0.650E+003
 RTBSE|            2220           3.690                               0.650E+003
 RTBSE|            2221           3.690                               0.650E+003
 RTBSE|            2222           3.679                               0.650E+003
 RTBSE|            2223           3.757                               0.650E+003
 RTBSE|            2224           3.724                               0.650E+003
 RTBSE|            2225           3.758                               0.650E+003
 RTBSE|            2226           3.864                               0.650E+003
 RTBSE|            2227           3.784                               0.650E+003
 RTBSE|            2228           3.785                               0.650E+003
 RTBSE|            2229           3.720                               0.650E+003
 RTBSE|            2230           3.833                               0.650E+003
 RTBSE|            2231           3.848                               0.650E+003
 RTBSE|            2232           3.800                               0.650E+003
 RTBSE|            2233           3.790                               0.650E+003
 RTBSE|            2234           4.006                               0.650E+003
 RTBSE|            2235           3.821                               0.650E+003
 RTBSE|            2236           3.784                               0.650E+003
 RTBSE|            2237           3.813                               0.650E+003
 RTBSE|            2238           3.786                               0.650E+003
 RTBSE|            2239           3.840                               0.650E+003
 RTBSE|            2240           3.808                               0.650E+003
 RTBSE|            2241           3.810                               0.650E+003
 RTBSE|            2242           3.956                               0.650E+003
 RTBSE|            2243           3.859                               0.650E+003
 RTBSE|            2244           3.849                               0.650E+003
 RTBSE|            2245           3.795                               0.650E+003
 RTBSE|            2246           3.849                               0.650E+003
 RTBSE|            2247           3.850                               0.650E+003
 RTBSE|            2248           3.742                               0.650E+003
 RTBSE|            2249           3.822                               0.650E+003
 RTBSE|            2250           3.914                               0.650E+003
 RTBSE|            2251           3.717                               0.650E+003
 RTBSE|            2252           3.723                               0.650E+003
 RTBSE|            2253           3.731                               0.650E+003
 RTBSE|            2254           3.743                               0.650E+003
 RTBSE|            2255           3.799                               0.650E+003
 RTBSE|            2256           3.734                               0.650E+003
 RTBSE|            2257           3.814                               0.650E+003
 RTBSE|            2258           3.844                               0.650E+003
 RTBSE|            2259           3.724                               0.650E+003
 RTBSE|            2260           3.765                               0.650E+003
 RTBSE|            2261           3.775                               0.650E+003
 RTBSE|            2262           3.709                               0.650E+003
 RTBSE|            2263           3.710                               0.650E+003
 RTBSE|            2264           3.685                               0.650E+003
 RTBSE|            2265           3.808                               0.650E+003
 RTBSE|            2266           3.861                               0.650E+003
 RTBSE|            2267           3.665                               0.650E+003
 RTBSE|            2268           3.645                               0.650E+003
 RTBSE|            2269           3.668                               0.650E+003
 RTBSE|            2270           3.696                               0.650E+003
 RTBSE|            2271           3.783                               0.650E+003
 RTBSE|            2272           3.682                               0.650E+003
 RTBSE|            2273           3.831                               0.650E+003
 RTBSE|            2274           3.814                               0.650E+003
 RTBSE|            2275           3.719                               0.650E+003
 RTBSE|            2276           3.765                               0.650E+003
 RTBSE|            2277           3.740                               0.650E+003
 RTBSE|            2278           3.739                               0.650E+003
 RTBSE|            2279           3.739                               0.650E+003
 RTBSE|            2280           3.720                               0.650E+003
 RTBSE|            2281           3.806                               0.650E+003
 RTBSE|            2282           3.889                               0.650E+003
 RTBSE|            2283           3.710                               0.650E+003
 RTBSE|            2284           3.775                               0.650E+003
 RTBSE|            2285           3.716                               0.650E+003
 RTBSE|            2286           3.761                               0.650E+003
 RTBSE|            2287           3.791                               0.650E+003
 RTBSE|            2288           3.709                               0.650E+003
 RTBSE|            2289           3.823                               0.650E+003
 RTBSE|            2290           3.755                               0.650E+003
 RTBSE|            2291           3.792                               0.650E+003
 RTBSE|            2292           3.707                               0.650E+003
 RTBSE|            2293           3.701                               0.650E+003
 RTBSE|            2294           3.766                               0.650E+003
 RTBSE|            2295           3.711                               0.650E+003
 RTBSE|            2296           3.695                               0.650E+003
 RTBSE|            2297           3.800                               0.650E+003
 RTBSE|            2298           3.856                               0.650E+003
 RTBSE|            2299           3.704                               0.650E+003
 RTBSE|            2300           3.695                               0.650E+003
 RTBSE|            2301           3.667                               0.650E+003
 RTBSE|            2302           3.775                               0.650E+003
 RTBSE|            2303           3.684                               0.650E+003
 RTBSE|            2304           3.714                               0.650E+003
 RTBSE|            2305           3.793                               0.650E+003
 RTBSE|            2306           3.755                               0.650E+003
 RTBSE|            2307           3.736                               0.650E+003
 RTBSE|            2308           3.726                               0.650E+003
 RTBSE|            2309           3.775                               0.650E+003
 RTBSE|            2310           3.788                               0.650E+003
 RTBSE|            2311           3.729                               0.650E+003
 RTBSE|            2312           3.718                               0.650E+003
 RTBSE|            2313           3.807                               0.650E+003
 RTBSE|            2314           3.876                               0.650E+003
 RTBSE|            2315           3.657                               0.650E+003
 RTBSE|            2316           3.677                               0.650E+003
 RTBSE|            2317           3.659                               0.650E+003
 RTBSE|            2318           3.708                               0.650E+003
 RTBSE|            2319           3.699                               0.650E+003
 RTBSE|            2320           3.664                               0.650E+003
 RTBSE|            2321           3.742                               0.650E+003
 RTBSE|            2322           3.771                               0.650E+003
 RTBSE|            2323           3.733                               0.650E+003
 RTBSE|            2324           3.715                               0.650E+003
 RTBSE|            2325           3.673                               0.650E+003
 RTBSE|            2326           3.737                               0.650E+003
 RTBSE|            2327           3.754                               0.650E+003
 RTBSE|            2328           3.654                               0.650E+003
 RTBSE|            2329           3.752                               0.650E+003
 RTBSE|            2330           3.848                               0.650E+003
 RTBSE|            2331           3.685                               0.650E+003
 RTBSE|            2332           3.663                               0.650E+003
 RTBSE|            2333           3.678                               0.650E+003
 RTBSE|            2334           3.706                               0.650E+003
 RTBSE|            2335           3.743                               0.650E+003
 RTBSE|            2336           3.656                               0.650E+003
 RTBSE|            2337           3.798                               0.650E+003
 RTBSE|            2338           3.810                               0.650E+003
 RTBSE|            2339           3.677                               0.650E+003
 RTBSE|            2340           3.734                               0.650E+003
 RTBSE|            2341           3.679                               0.650E+003
 RTBSE|            2342           3.731                               0.650E+003
 RTBSE|            2343           3.732                               0.650E+003
 RTBSE|            2344           3.680                               0.650E+003
 RTBSE|            2345           3.817                               0.650E+003
 RTBSE|            2346           3.950                               0.650E+003
 RTBSE|            2347           3.687                               0.650E+003
 RTBSE|            2348           3.678                               0.650E+003
 RTBSE|            2349           3.665                               0.650E+003
 RTBSE|            2350           3.676                               0.650E+003
 RTBSE|            2351           3.773                               0.650E+003
 RTBSE|            2352           3.675                               0.650E+003
 RTBSE|            2353           3.814                               0.650E+003
 RTBSE|            2354           3.826                               0.650E+003
 RTBSE|            2355           3.692                               0.650E+003
 RTBSE|            2356           3.692                               0.650E+003
 RTBSE|            2357           3.657                               0.650E+003
 RTBSE|            2358           3.734                               0.650E+003
 RTBSE|            2359           3.769                               0.650E+003
 RTBSE|            2360           3.688                               0.650E+003
 RTBSE|            2361           3.872                               0.650E+003
 RTBSE|            2362           3.902                               0.650E+003
 RTBSE|            2363           3.692                               0.650E+003
 RTBSE|            2364           3.681                               0.650E+003
 RTBSE|            2365           3.677                               0.650E+003
 RTBSE|            2366           3.705                               0.650E+003
 RTBSE|            2367           3.720                               0.650E+003
 RTBSE|            2368           3.697                               0.650E+003
 RTBSE|            2369           3.831                               0.650E+003
 RTBSE|            2370           3.807                               0.650E+003
 RTBSE|            2371           3.665                               0.650E+003
 RTBSE|            2372           3.722                               0.650E+003
 RTBSE|            2373           3.652                               0.650E+003
 RTBSE|            2374           3.717                               0.650E+003
 RTBSE|            2375           3.732                               0.650E+003
 RTBSE|            2376           3.664                               0.650E+003
 RTBSE|            2377           3.796                               0.650E+003
 RTBSE|            2378           3.811                               0.650E+003
 RTBSE|            2379           3.748                               0.650E+003
 RTBSE|            2380           3.667                               0.650E+003
 RTBSE|            2381           3.675                               0.650E+003
 RTBSE|            2382           3.745                               0.650E+003
 RTBSE|            2383           3.764                               0.650E+003
 RTBSE|            2384           3.693                               0.650E+003
 RTBSE|            2385           3.763                               0.650E+003
 RTBSE|            2386           3.840                               0.650E+003
 RTBSE|            2387           3.703                               0.650E+003
 RTBSE|            2388           3.739                               0.650E+003
 RTBSE|            2389           3.701                               0.650E+003
 RTBSE|            2390           3.753                               0.650E+003
 RTBSE|            2391           3.809                               0.650E+003
 RTBSE|            2392           3.727                               0.650E+003
 RTBSE|            2393           3.871                               0.650E+003
 RTBSE|            2394           3.844                               0.650E+003
 RTBSE|            2395           3.689                               0.650E+003
 RTBSE|            2396           3.690                               0.650E+003
 RTBSE|            2397           3.687                               0.650E+003
 RTBSE|            2398           3.695                               0.650E+003
 RTBSE|            2399           3.760                               0.650E+003
 RTBSE|            2400           3.683                               0.650E+003
 RTBSE|            2401           3.791                               0.650E+003
 RTBSE|            2402           3.819                               0.650E+003
 RTBSE|            2403           3.742                               0.650E+003
 RTBSE|            2404           3.764                               0.650E+003
 RTBSE|            2405           3.682                               0.650E+003
 RTBSE|            2406           3.752                               0.650E+003
 RTBSE|            2407           3.761                               0.650E+003
 RTBSE|            2408           3.700                               0.650E+003
 RTBSE|            2409           3.850                               0.650E+003
 RTBSE|            2410           3.849                               0.650E+003
 RTBSE|            2411           3.705                               0.650E+003
 RTBSE|            2412           3.702                               0.650E+003
 RTBSE|            2413           3.696                               0.650E+003
 RTBSE|            2414           3.730                               0.650E+003
 RTBSE|            2415           3.748                               0.650E+003
 RTBSE|            2416           3.701                               0.650E+003
 RTBSE|            2417           3.772                               0.650E+003
 RTBSE|            2418           3.845                               0.650E+003
 RTBSE|            2419           3.712                               0.650E+003
 RTBSE|            2420           3.763                               0.650E+003
 RTBSE|            2421           3.702                               0.650E+003
 RTBSE|            2422           3.756                               0.650E+003
 RTBSE|            2423           3.735                               0.650E+003
 RTBSE|            2424           3.688                               0.650E+003
 RTBSE|            2425           3.799                               0.650E+003
 RTBSE|            2426           3.871                               0.650E+003
 RTBSE|            2427           3.705                               0.650E+003
 RTBSE|            2428           3.695                               0.650E+003
 RTBSE|            2429           3.720                               0.650E+003
 RTBSE|            2430           3.759                               0.650E+003
 RTBSE|            2431           3.811                               0.650E+003
 RTBSE|            2432           3.716                               0.650E+003
 RTBSE|            2433           3.768                               0.650E+003
 RTBSE|            2434           3.774                               0.650E+003
 RTBSE|            2435           3.703                               0.650E+003
 RTBSE|            2436           3.728                               0.650E+003
 RTBSE|            2437           3.693                               0.650E+003
 RTBSE|            2438           3.749                               0.650E+003
 RTBSE|            2439           3.806                               0.650E+003
 RTBSE|            2440           3.684                               0.650E+003
 RTBSE|            2441           3.821                               0.650E+003
 RTBSE|            2442           3.785                               0.650E+003
 RTBSE|            2443           3.715                               0.650E+003
 RTBSE|            2444           3.665                               0.650E+003
 RTBSE|            2445           3.690                               0.650E+003
 RTBSE|            2446           3.713                               0.650E+003
 RTBSE|            2447           3.801                               0.650E+003
 RTBSE|            2448           3.675                               0.650E+003
 RTBSE|            2449           3.738                               0.650E+003
 RTBSE|            2450           3.816                               0.650E+003
 RTBSE|            2451           3.689                               0.650E+003
 RTBSE|            2452           3.748                               0.650E+003
 RTBSE|            2453           3.661                               0.650E+003
 RTBSE|            2454           3.737                               0.650E+003
 RTBSE|            2455           3.723                               0.650E+003
 RTBSE|            2456           3.687                               0.650E+003
 RTBSE|            2457           3.772                               0.650E+003
 RTBSE|            2458           3.867                               0.650E+003
 RTBSE|            2459           3.674                               0.650E+003
 RTBSE|            2460           3.704                               0.650E+003
 RTBSE|            2461           3.693                               0.650E+003
 RTBSE|            2462           3.713                               0.650E+003
 RTBSE|            2463           3.756                               0.650E+003
 RTBSE|            2464           3.695                               0.650E+003
 RTBSE|            2465           3.771                               0.650E+003
 RTBSE|            2466           3.850                               0.650E+003
 RTBSE|            2467           3.694                               0.650E+003
 RTBSE|            2468           3.719                               0.650E+003
 RTBSE|            2469           3.662                               0.650E+003
 RTBSE|            2470           3.730                               0.650E+003
 RTBSE|            2471           3.737                               0.650E+003
 RTBSE|            2472           3.681                               0.650E+003
 RTBSE|            2473           3.826                               0.650E+003
 RTBSE|            2474           3.906                               0.650E+003
 RTBSE|            2475           3.691                               0.650E+003
 RTBSE|            2476           3.669                               0.650E+003
 RTBSE|            2477           3.679                               0.650E+003
 RTBSE|            2478           3.683                               0.650E+003
 RTBSE|            2479           3.878                               0.650E+003
 RTBSE|            2480           3.721                               0.650E+003
 RTBSE|            2481           3.789                               0.650E+003
 RTBSE|            2482           3.838                               0.650E+003
 RTBSE|            2483           3.679                               0.650E+003
 RTBSE|            2484           3.739                               0.650E+003
 RTBSE|            2485           3.669                               0.650E+003
 RTBSE|            2486           3.764                               0.650E+003
 RTBSE|            2487           3.747                               0.650E+003
 RTBSE|            2488           3.718                               0.650E+003
 RTBSE|            2489           3.831                               0.650E+003
 RTBSE|            2490           3.843                               0.650E+003
 RTBSE|            2491           3.743                               0.650E+003
 RTBSE|            2492           3.695                               0.650E+003
 RTBSE|            2493           3.704                               0.650E+003
 RTBSE|            2494           3.798                               0.650E+003
 RTBSE|            2495           3.760                               0.650E+003
 RTBSE|            2496           3.689                               0.650E+003
 RTBSE|            2497           3.785                               0.650E+003
 RTBSE|            2498           3.787                               0.650E+003
 RTBSE|            2499           3.722                               0.650E+003
 RTBSE|            2500           3.723                               0.650E+003
 RTBSE|            2501           3.685                               0.650E+003
 RTBSE|            2502           3.834                               0.650E+003
 RTBSE|            2503           3.750                               0.650E+003
 RTBSE|            2504           3.711                               0.650E+003
 RTBSE|            2505           3.787                               0.650E+003
 RTBSE|            2506           3.852                               0.650E+003
 RTBSE|            2507           3.717                               0.650E+003
 RTBSE|            2508           3.688                               0.650E+003
 RTBSE|            2509           3.709                               0.650E+003
 RTBSE|            2510           3.731                               0.650E+003
 RTBSE|            2511           3.708                               0.650E+003
 RTBSE|            2512           3.704                               0.650E+003
 RTBSE|            2513           3.775                               0.650E+003
 RTBSE|            2514           3.830                               0.650E+003
 RTBSE|            2515           3.711                               0.650E+003
 RTBSE|            2516           3.752                               0.650E+003
 RTBSE|            2517           3.743                               0.650E+003
 RTBSE|            2518           3.824                               0.650E+003
 RTBSE|            2519           3.785                               0.650E+003
 RTBSE|            2520           3.742                               0.650E+003
 RTBSE|            2521           3.918                               0.650E+003
 RTBSE|            2522           3.909                               0.650E+003
 RTBSE|            2523           3.748                               0.650E+003
 RTBSE|            2524           3.740                               0.650E+003
 RTBSE|            2525           3.752                               0.650E+003
 RTBSE|            2526           3.799                               0.650E+003
 RTBSE|            2527           3.761                               0.650E+003
 RTBSE|            2528           3.766                               0.650E+003
 RTBSE|            2529           3.848                               0.650E+003
 RTBSE|            2530           3.785                               0.650E+003
 RTBSE|            2531           3.719                               0.650E+003
 RTBSE|            2532           3.770                               0.650E+003
 RTBSE|            2533           3.745                               0.650E+003
 RTBSE|            2534           3.854                               0.650E+003
 RTBSE|            2535           3.753                               0.650E+003
 RTBSE|            2536           3.740                               0.650E+003
 RTBSE|            2537           3.894                               0.650E+003
 RTBSE|            2538           3.820                               0.650E+003
 RTBSE|            2539           3.720                               0.650E+003
 RTBSE|            2540           3.746                               0.650E+003
 RTBSE|            2541           3.737                               0.650E+003
 RTBSE|            2542           3.815                               0.650E+003
 RTBSE|            2543           3.761                               0.650E+003
 RTBSE|            2544           3.763                               0.650E+003
 RTBSE|            2545           3.961                               0.650E+003
 RTBSE|            2546           3.859                               0.650E+003
 RTBSE|            2547           3.768                               0.650E+003
 RTBSE|            2548           3.811                               0.650E+003
 RTBSE|            2549           3.780                               0.650E+003
 RTBSE|            2550           3.804                               0.650E+003
 RTBSE|            2551           3.702                               0.650E+003
 RTBSE|            2552           3.736                               0.650E+003
 RTBSE|            2553           3.925                               0.650E+003
 RTBSE|            2554           3.763                               0.650E+003
 RTBSE|            2555           3.679                               0.650E+003
 RTBSE|            2556           3.704                               0.650E+003
 RTBSE|            2557           3.707                               0.650E+003
 RTBSE|            2558           3.774                               0.650E+003
 RTBSE|            2559           3.707                               0.650E+003
 RTBSE|            2560           3.696                               0.650E+003
 RTBSE|            2561           3.819                               0.650E+003
 RTBSE|            2562           3.735                               0.650E+003
 RTBSE|            2563           3.675                               0.650E+003
 RTBSE|            2564           3.739                               0.650E+003
 RTBSE|            2565           3.714                               0.650E+003
 RTBSE|            2566           3.774                               0.650E+003
 RTBSE|            2567           3.678                               0.650E+003
 RTBSE|            2568           3.688                               0.650E+003
 RTBSE|            2569           3.850                               0.650E+003
 RTBSE|            2570           3.762                               0.650E+003
 RTBSE|            2571           3.696                               0.650E+003
 RTBSE|            2572           3.710                               0.650E+003
 RTBSE|            2573           3.690                               0.650E+003
 RTBSE|            2574           3.802                               0.650E+003
 RTBSE|            2575           3.719                               0.650E+003
 RTBSE|            2576           3.680                               0.650E+003
 RTBSE|            2577           3.826                               0.650E+003
 RTBSE|            2578           3.766                               0.650E+003
 RTBSE|            2579           3.720                               0.650E+003
 RTBSE|            2580           3.758                               0.650E+003
 RTBSE|            2581           3.795                               0.650E+003
 RTBSE|            2582           3.805                               0.650E+003
 RTBSE|            2583           3.734                               0.650E+003
 RTBSE|            2584           3.694                               0.650E+003
 RTBSE|            2585           3.912                               0.650E+003
 RTBSE|            2586           3.784                               0.650E+003
 RTBSE|            2587           3.742                               0.650E+003
 RTBSE|            2588           3.739                               0.650E+003
 RTBSE|            2589           3.763                               0.650E+003
 RTBSE|            2590           3.832                               0.650E+003
 RTBSE|            2591           3.795                               0.650E+003
 RTBSE|            2592           3.764                               0.650E+003
 RTBSE|            2593           3.964                               0.650E+003
 RTBSE|            2594           3.768                               0.650E+003
 RTBSE|            2595           3.713                               0.650E+003
 RTBSE|            2596           3.806                               0.650E+003
 RTBSE|            2597           3.796                               0.650E+003
 RTBSE|            2598           3.750                               0.650E+003
 RTBSE|            2599           3.703                               0.650E+003
 RTBSE|            2600           3.718                               0.650E+003
 RTBSE|            2601           3.838                               0.650E+003
 RTBSE|            2602           3.732                               0.650E+003
 RTBSE|            2603           3.727                               0.650E+003
 RTBSE|            2604           3.683                               0.650E+003
 RTBSE|            2605           3.684                               0.650E+003
 RTBSE|            2606           3.761                               0.650E+003
 RTBSE|            2607           3.692                               0.650E+003
 RTBSE|            2608           3.696                               0.650E+003
 RTBSE|            2609           3.814                               0.650E+003
 RTBSE|            2610           3.721                               0.650E+003
 RTBSE|            2611           3.689                               0.650E+003
 RTBSE|            2612           3.762                               0.650E+003
 RTBSE|            2613           3.747                               0.650E+003
 RTBSE|            2614           3.769                               0.650E+003
 RTBSE|            2615           3.707                               0.650E+003
 RTBSE|            2616           3.757                               0.650E+003
 RTBSE|            2617           3.956                               0.650E+003
 RTBSE|            2618           3.815                               0.650E+003
 RTBSE|            2619           3.770                               0.650E+003
 RTBSE|            2620           3.769                               0.650E+003
 RTBSE|            2621           3.794                               0.650E+003
 RTBSE|            2622           3.831                               0.650E+003
 RTBSE|            2623           3.777                               0.650E+003
 RTBSE|            2624           3.868                               0.650E+003
 RTBSE|            2625           3.927                               0.650E+003
 RTBSE|            2626           3.806                               0.650E+003
 RTBSE|            2627           3.762                               0.650E+003
 RTBSE|            2628           3.838                               0.650E+003
 RTBSE|            2629           3.860                               0.650E+003
 RTBSE|            2630           3.803                               0.650E+003
 RTBSE|            2631           3.793                               0.650E+003
 RTBSE|            2632           3.914                               0.650E+003
 RTBSE|            2633           3.896                               0.650E+003
 RTBSE|            2634           3.813                               0.650E+003
 RTBSE|            2635           3.761                               0.650E+003
 RTBSE|            2636           3.772                               0.650E+003
 RTBSE|            2637           3.837                               0.650E+003
 RTBSE|            2638           3.756                               0.650E+003
 RTBSE|            2639           3.672                               0.650E+003
 RTBSE|            2640           3.880                               0.650E+003
 RTBSE|            2641           3.775                               0.650E+003
 RTBSE|            2642           3.707                               0.650E+003
 RTBSE|            2643           3.773                               0.650E+003
 RTBSE|            2644           3.774                               0.650E+003
 RTBSE|            2645           3.849                               0.650E+003
 RTBSE|            2646           3.747                               0.650E+003
 RTBSE|            2647           3.731                               0.650E+003
 RTBSE|            2648           3.940                               0.650E+003
 RTBSE|            2649           3.833                               0.650E+003
 RTBSE|            2650           3.742                               0.650E+003
 RTBSE|            2651           3.789                               0.650E+003
 RTBSE|            2652           3.770                               0.650E+003
 RTBSE|            2653           3.818                               0.650E+003
 RTBSE|            2654           3.792                               0.650E+003
 RTBSE|            2655           3.737                               0.650E+003
 RTBSE|            2656           3.889                               0.650E+003
 RTBSE|            2657           3.809                               0.650E+003
 RTBSE|            2658           3.737                               0.650E+003
 RTBSE|            2659           3.774                               0.650E+003
 RTBSE|            2660           3.738                               0.650E+003
 RTBSE|            2661           3.813                               0.650E+003
 RTBSE|            2662           3.774                               0.650E+003
 RTBSE|            2663           3.741                               0.650E+003
 RTBSE|            2664           3.939                               0.650E+003
 RTBSE|            2665           3.776                               0.650E+003
 RTBSE|            2666           3.867                               0.650E+003
 RTBSE|            2667           3.689                               0.650E+003
 RTBSE|            2668           3.681                               0.650E+003
 RTBSE|            2669           3.757                               0.650E+003
 RTBSE|            2670           3.712                               0.650E+003
 RTBSE|            2671           3.700                               0.650E+003
 RTBSE|            2672           3.890                               0.650E+003
 RTBSE|            2673           3.704                               0.650E+003
 RTBSE|            2674           3.680                               0.650E+003
 RTBSE|            2675           3.705                               0.650E+003
 RTBSE|            2676           3.691                               0.650E+003
 RTBSE|            2677           3.901                               0.650E+003
 RTBSE|            2678           3.738                               0.650E+003
 RTBSE|            2679           3.726                               0.650E+003
 RTBSE|            2680           3.903                               0.650E+003
 RTBSE|            2681           3.777                               0.650E+003
 RTBSE|            2682           3.727                               0.650E+003
 RTBSE|            2683           3.704                               0.650E+003
 RTBSE|            2684           3.677                               0.650E+003
 RTBSE|            2685           3.734                               0.650E+003
 RTBSE|            2686           3.711                               0.650E+003
 RTBSE|            2687           3.705                               0.650E+003
 RTBSE|            2688           3.865                               0.650E+003
 RTBSE|            2689           3.767                               0.650E+003
 RTBSE|            2690           3.680                               0.650E+003
 RTBSE|            2691           3.720                               0.650E+003
 RTBSE|            2692           3.758                               0.650E+003
 RTBSE|            2693           3.811                               0.650E+003
 RTBSE|            2694           3.729                               0.650E+003
 RTBSE|            2695           3.746                               0.650E+003
 RTBSE|            2696           3.972                               0.650E+003
 RTBSE|            2697           3.730                               0.650E+003
 RTBSE|            2698           3.709                               0.650E+003
 RTBSE|            2699           3.695                               0.650E+003
 RTBSE|            2700           3.728                               0.650E+003
 RTBSE|            2701           3.724                               0.650E+003
 RTBSE|            2702           3.704                               0.650E+003
 RTBSE|            2703           3.709                               0.650E+003
 RTBSE|            2704           3.819                               0.650E+003
 RTBSE|            2705           3.713                               0.650E+003
 RTBSE|            2706           3.684                               0.650E+003
 RTBSE|            2707           3.727                               0.650E+003
 RTBSE|            2708           3.690                               0.650E+003
 RTBSE|            2709           3.760                               0.650E+003
 RTBSE|            2710           3.737                               0.650E+003
 RTBSE|            2711           3.727                               0.650E+003
 RTBSE|            2712           3.936                               0.650E+003
 RTBSE|            2713           3.745                               0.650E+003
 RTBSE|            2714           3.727                               0.650E+003
 RTBSE|            2715           3.710                               0.650E+003
 RTBSE|            2716           3.726                               0.650E+003
 RTBSE|            2717           3.777                               0.650E+003
 RTBSE|            2718           3.727                               0.650E+003
 RTBSE|            2719           3.745                               0.650E+003
 RTBSE|            2720           3.859                               0.650E+003
 RTBSE|            2721           3.756                               0.650E+003
 RTBSE|            2722           3.715                               0.650E+003
 RTBSE|            2723           3.741                               0.650E+003
 RTBSE|            2724           3.878                               0.650E+003
 RTBSE|            2725           3.864                               0.650E+003
 RTBSE|            2726           3.843                               0.650E+003
 RTBSE|            2727           3.939                               0.650E+003
 RTBSE|            2728           4.007                               0.650E+003
 RTBSE|            2729           3.859                               0.650E+003
 RTBSE|            2730           3.791                               0.650E+003
 RTBSE|            2731           3.781                               0.650E+003
 RTBSE|            2732           3.815                               0.650E+003
 RTBSE|            2733           3.737                               0.650E+003
 RTBSE|            2734           3.718                               0.650E+003
 RTBSE|            2735           3.783                               0.650E+003
 RTBSE|            2736           3.823                               0.650E+003
 RTBSE|            2737           3.693                               0.650E+003
 RTBSE|            2738           3.706                               0.650E+003
 RTBSE|            2739           3.774                               0.650E+003
 RTBSE|            2740           3.812                               0.650E+003
 RTBSE|            2741           3.732                               0.650E+003
 RTBSE|            2742           3.705                               0.650E+003
 RTBSE|            2743           3.798                               0.650E+003
 RTBSE|            2744           3.839                               0.650E+003
 RTBSE|            2745           3.773                               0.650E+003
 RTBSE|            2746           3.714                               0.650E+003
 RTBSE|            2747           3.681                               0.650E+003
 RTBSE|            2748           3.736                               0.650E+003
 RTBSE|            2749           3.716                               0.650E+003
 RTBSE|            2750           3.684                               0.650E+003
 RTBSE|            2751           3.819                               0.650E+003
 RTBSE|            2752           3.742                               0.650E+003
 RTBSE|            2753           3.664                               0.650E+003
 RTBSE|            2754           3.678                               0.650E+003
 RTBSE|            2755           3.723                               0.650E+003
 RTBSE|            2756           3.818                               0.650E+003
 RTBSE|            2757           3.755                               0.650E+003
 RTBSE|            2758           3.769                               0.650E+003
 RTBSE|            2759           3.900                               0.650E+003
 RTBSE|            2760           4.021                               0.650E+003
 RTBSE|            2761           3.821                               0.650E+003
 RTBSE|            2762           3.727                               0.650E+003
 RTBSE|            2763           3.720                               0.650E+003
 RTBSE|            2764           3.802                               0.650E+003
 RTBSE|            2765           3.757                               0.650E+003
 RTBSE|            2766           3.720                               0.650E+003
 RTBSE|            2767           3.822                               0.650E+003
 RTBSE|            2768           3.766                               0.650E+003
 RTBSE|            2769           3.741                               0.650E+003
 RTBSE|            2770           3.712                               0.650E+003
 RTBSE|            2771           3.763                               0.650E+003
 RTBSE|            2772           3.859                               0.650E+003
 RTBSE|            2773           3.745                               0.650E+003
 RTBSE|            2774           3.718                               0.650E+003
 RTBSE|            2775           3.854                               0.650E+003
 RTBSE|            2776           3.780                               0.650E+003
 RTBSE|            2777           3.798                               0.650E+003
 RTBSE|            2778           3.750                               0.650E+003
 RTBSE|            2779           3.678                               0.650E+003
 RTBSE|            2780           3.775                               0.650E+003
 RTBSE|            2781           3.714                               0.650E+003
 RTBSE|            2782           3.704                               0.650E+003
 RTBSE|            2783           3.815                               0.650E+003
 RTBSE|            2784           3.700                               0.650E+003
 RTBSE|            2785           3.665                               0.650E+003
 RTBSE|            2786           3.662                               0.650E+003
 RTBSE|            2787           3.713                               0.650E+003
 RTBSE|            2788           3.773                               0.650E+003
 RTBSE|            2789           3.697                               0.650E+003
 RTBSE|            2790           3.670                               0.650E+003
 RTBSE|            2791           3.799                               0.650E+003
 RTBSE|            2792           3.764                               0.650E+003
 RTBSE|            2793           3.709                               0.650E+003
 RTBSE|            2794           3.677                               0.650E+003
 RTBSE|            2795           3.685                               0.650E+003
 RTBSE|            2796           3.740                               0.650E+003
 RTBSE|            2797           3.690                               0.650E+003
 RTBSE|            2798           3.676                               0.650E+003
 RTBSE|            2799           3.787                               0.650E+003
 RTBSE|            2800           3.767                               0.650E+003
 RTBSE|            2801           3.667                               0.650E+003
 RTBSE|            2802           3.692                               0.650E+003
 RTBSE|            2803           3.743                               0.650E+003
 RTBSE|            2804           3.823                               0.650E+003
 RTBSE|            2805           3.746                               0.650E+003
 RTBSE|            2806           3.677                               0.650E+003
 RTBSE|            2807           3.834                               0.650E+003
 RTBSE|            2808           3.748                               0.650E+003
 RTBSE|            2809           3.739                               0.650E+003
 RTBSE|            2810           3.673                               0.650E+003
 RTBSE|            2811           3.663                               0.650E+003
 RTBSE|            2812           3.857                               0.650E+003
 RTBSE|            2813           3.727                               0.650E+003
 RTBSE|            2814           3.701                               0.650E+003
 RTBSE|            2815           3.809                               0.650E+003
 RTBSE|            2816           3.739                               0.650E+003
 RTBSE|            2817           3.681                               0.650E+003
 RTBSE|            2818           3.692                               0.650E+003
 RTBSE|            2819           3.733                               0.650E+003
 RTBSE|            2820           3.789                               0.650E+003
 RTBSE|            2821           3.670                               0.650E+003
 RTBSE|            2822           3.702                               0.650E+003
 RTBSE|            2823           3.861                               0.650E+003
 RTBSE|            2824           3.786                               0.650E+003
 RTBSE|            2825           3.730                               0.650E+003
 RTBSE|            2826           3.685                               0.650E+003
 RTBSE|            2827           3.674                               0.650E+003
 RTBSE|            2828           3.764                               0.650E+003
 RTBSE|            2829           3.726                               0.650E+003
 RTBSE|            2830           3.685                               0.650E+003
 RTBSE|            2831           3.875                               0.650E+003
 RTBSE|            2832           3.827                               0.650E+003
 RTBSE|            2833           3.743                               0.650E+003
 RTBSE|            2834           3.721                               0.650E+003
 RTBSE|            2835           3.766                               0.650E+003
 RTBSE|            2836           3.832                               0.650E+003
 RTBSE|            2837           3.682                               0.650E+003
 RTBSE|            2838           3.682                               0.650E+003
 RTBSE|            2839           3.811                               0.650E+003
 RTBSE|            2840           3.839                               0.650E+003
 RTBSE|            2841           3.777                               0.650E+003
 RTBSE|            2842           3.687                               0.650E+003
 RTBSE|            2843           3.727                               0.650E+003
 RTBSE|            2844           3.802                               0.650E+003
 RTBSE|            2845           3.672                               0.650E+003
 RTBSE|            2846           3.682                               0.650E+003
 RTBSE|            2847           3.777                               0.650E+003
 RTBSE|            2848           3.838                               0.650E+003
 RTBSE|            2849           3.718                               0.650E+003
 RTBSE|            2850           3.660                               0.650E+003
 RTBSE|            2851           3.714                               0.650E+003
 RTBSE|            2852           3.815                               0.650E+003
 RTBSE|            2853           3.744                               0.650E+003
 RTBSE|            2854           3.716                               0.650E+003
 RTBSE|            2855           3.810                               0.650E+003
 RTBSE|            2856           3.747                               0.650E+003
 RTBSE|            2857           3.692                               0.650E+003
 RTBSE|            2858           3.670                               0.650E+003
 RTBSE|            2859           3.692                               0.650E+003
 RTBSE|            2860           3.766                               0.650E+003
  GREENX FT_PADE| n_pade, n_fit, window [eV]   484     968     0.0000    19.9960
  GREENX FT_PADE| n_pade, n_fit, window [eV]   484     968     0.0000    19.9960
  GREENX FT_PADE| n_pade, n_fit, window [eV]   484     968     0.0000    19.9960
 STATIC_POL|         spin  element Re [a.u.]              Im [a.u.]
 STATIC_POL|            1    1,  2      7.8593395197E-002      1.9102349010E-014
 STATIC_POL|            1    2,  2      1.4436969363E+004      2.8174979502E-012
 STATIC_POL|            1    3,  2      2.2329791630E-002     -8.3565892142E-016

 -------------------------------------------------------------------------------
 -                                                                             -
 -                                DBCSR STATISTICS                             -
 -                                                                             -
 -------------------------------------------------------------------------------
 COUNTER                                    TOTAL       BLAS       SMM       ACC
 flops     6 x     6 x    72             23016960       0.0%    100.0%      0.0%     
 flops     6 x     6 x    96             61378560       0.0%    100.0%      0.0%     
 flops     6 x    32 x     6             79183872       0.0%    100.0%      0.0%     
 flops     6 x     6 x    64            102297600       0.0%    100.0%      0.0%     
 flops     6 x    13 x    72            152845056       0.0%    100.0%      0.0%     
 flops    13 x     6 x    72            153563904       0.0%    100.0%      0.0%     
 flops     6 x    13 x    96            407586816       0.0%    100.0%      0.0%     
 flops    13 x     6 x    96            409503744       0.0%    100.0%      0.0%     
 flops    13 x    32 x     6            544727040       0.0%    100.0%      0.0%     
 flops     6 x    32 x    13            544727040       0.0%    100.0%      0.0%     
 flops     6 x    13 x    64            679311360       0.0%    100.0%      0.0%     
 flops    13 x     6 x    64            682506240       0.0%    100.0%      0.0%     
 flops    13 x    13 x    72           1033793280       0.0%    100.0%      0.0%     
 flops     5 x     5 x     3           1114250250       0.0%    100.0%      0.0%     
 flops     3 x     5 x     5           1341282450       0.0%    100.0%      0.0%     
 flops     3 x     5 x     3           1956291660       0.0%    100.0%      0.0%     
 flops     3 x     3 x     5           2589804540       0.0%    100.0%      0.0%     
 flops    13 x    13 x    96           2756782080       0.0%    100.0%      0.0%     
 flops     5 x     5 x    27           3182845050       0.0%    100.0%      0.0%     
 flops    13 x    32 x    13           3636944896       0.0%    100.0%      0.0%     
 flops    27 x     5 x     5           3979535400       0.0%    100.0%      0.0%     
 flops    13 x    13 x    64           4594636800       0.0%    100.0%      0.0%     
 flops    27 x     5 x     3           5369740290       0.0%    100.0%      0.0%     
 flops     3 x     5 x    27           6426041040       0.0%    100.0%      0.0%     
 flops     3 x    27 x     5           7632739350       0.0%    100.0%      0.0%     
 flops    27 x     3 x     5           7651585620       0.0%    100.0%      0.0%     
 flops    27 x     5 x    27          17922844080       0.0%    100.0%      0.0%     
 flops     5 x    30 x     3          21553072200       0.0%    100.0%      0.0%     
 flops    27 x    27 x     5          22541591250       0.0%    100.0%      0.0%     
 flops    30 x     5 x     3          23053809600       0.0%    100.0%      0.0%     
 flops     3 x    30 x     5          26301359700       0.0%    100.0%      0.0%     
 flops     5 x     5 x    32          28160640000       0.0%    100.0%      0.0%     
 flops     3 x     5 x    30          28863564300       0.0%    100.0%      0.0%     
 flops    32 x     5 x     5          31918225600       0.0%    100.0%      0.0%     
 flops     3 x    30 x     3          41887234620       0.0%    100.0%      0.0%     
 flops    32 x     5 x     3          44586973440       0.0%    100.0%      0.0%     
 flops     3 x     5 x    32          53544346560       0.0%    100.0%      0.0%     
 flops     3 x     3 x    30          54913026060       0.0%    100.0%      0.0%     
 flops    32 x     3 x     5          56465903040       0.0%    100.0%      0.0%     
 flops     3 x    32 x     5          61339132800       0.0%    100.0%      0.0%     
 flops     5 x    30 x    27          61839539100       0.0%    100.0%      0.0%     
 flops    30 x     5 x    27          65245184100       0.0%    100.0%      0.0%     
 flops    27 x    30 x     5          77755820400       0.0%    100.0%      0.0%     
 flops    27 x     5 x    30          84284274600       0.0%    100.0%      0.0%     
 flops    27 x    30 x     3         115758284220       0.0%    100.0%      0.0%     
 flops     3 x    30 x    27         132620637420       0.0%    100.0%      0.0%     
 flops    32 x     5 x    27         143010126720       0.0%    100.0%      0.0%     
 flops    27 x     5 x    32         150706284480       0.0%    100.0%      0.0%     
 flops     3 x    27 x    30         159963289020       0.0%    100.0%      0.0%     
 flops    27 x     3 x    30         161375439780       0.0%    100.0%      0.0%     
 flops    32 x    27 x     5         166397414400       0.0%    100.0%      0.0%     
 flops    27 x    32 x     5         181287564480       0.0%    100.0%      0.0%     
 flops    27 x    30 x    27         371597019120       0.0%    100.0%      0.0%     
 flops    30 x    30 x     3         444875149800       0.0%    100.0%      0.0%     
 flops    27 x    27 x    30         469920996180       0.0%    100.0%      0.0%     
 flops     5 x    30 x    32         537632476800       0.0%    100.0%      0.0%     
 flops     3 x    30 x    30         557866737000       0.0%    100.0%      0.0%     
 flops    30 x     5 x    32         568474742400       0.0%    100.0%      0.0%     
 flops    32 x    30 x     5         624253420800       0.0%    100.0%      0.0%     
 flops    32 x     5 x    30         671911699200       0.0%    100.0%      0.0%     
 flops     3 x     6 x     6         759337312752       0.0%    100.0%      0.0%     
 flops     6 x     6 x     3         831293983728       0.0%    100.0%      0.0%     
 flops    32 x    30 x     3         944683142400       0.0%    100.0%      0.0%     
 flops     3 x     6 x     3        1086805673676       0.0%    100.0%      0.0%     
 flops     3 x     3 x     6        1090335893220       0.0%    100.0%      0.0%     
 flops     3 x    30 x    32        1095563514240       0.0%    100.0%      0.0%     
 flops    32 x     5 x    32        1179322183680       0.0%    100.0%      0.0%     
 flops    32 x     3 x    30        1191515281920       0.0%    100.0%      0.0%     
 flops    30 x    30 x    27        1265140814400       0.0%    100.0%      0.0%     
 flops     3 x    32 x    30        1276456348800       0.0%    100.0%      0.0%     
 flops    32 x    32 x     5        1337185945600       0.0%    100.0%      0.0%     
 flops    27 x    30 x    30        1628550084600       0.0%    100.0%      0.0%     
 flops    27 x     6 x     6        2171915395920       0.0%    100.0%      0.0%     
 flops     6 x     6 x    27        2328638710536       0.0%    100.0%      0.0%     
 flops    32 x    30 x    27        2934314087040       0.0%    100.0%      0.0%     
 flops     3 x     6 x    27        3042570481740       0.0%    100.0%      0.0%     
 flops     3 x    27 x     6        3051973863432       0.0%    100.0%      0.0%     
 flops    27 x     6 x     3        3064452235164       0.0%    100.0%      0.0%     
 flops    27 x     3 x     6        3074278551552       0.0%    100.0%      0.0%     
 flops    27 x    30 x    32        3099548592000       0.0%    100.0%      0.0%     
 flops    32 x    27 x    30        3470626880640       0.0%    100.0%      0.0%     
 flops    27 x    32 x    30        3752288737920       0.0%    100.0%      0.0%     
 flops     3 x    13 x     6        5118984006552       0.0%    100.0%      0.0%     
 flops     6 x    13 x     3        5916622379616       0.0%    100.0%      0.0%     
 flops     3 x     6 x    13        7020282038328       0.0%    100.0%      0.0%     
 flops    13 x     6 x     3        7722944855028       0.0%    100.0%      0.0%     
 flops    27 x     6 x    27        8546428601496       0.0%    100.0%      0.0%     
 flops    27 x    27 x     6        8572820556420       0.0%    100.0%      0.0%     
 flops     3 x    13 x     3       10191128043798       0.0%    100.0%      0.0%     
 flops     3 x     3 x    13       10225164819636       0.0%    100.0%      0.0%     
 flops    30 x    30 x    32       10833292857600       0.0%    100.0%      0.0%     
 flops    32 x    30 x    30       12982965523200       0.0%    100.0%      0.0%     
 flops    27 x    13 x     6       14641635048768       0.0%    100.0%      0.0%     
 flops     6 x    13 x    27       16494231757068       0.0%    100.0%      0.0%     
 flops    27 x     6 x    13       18732082069584       0.0%    100.0%      0.0%     
 flops    13 x     6 x    27       20343043510920       0.0%    100.0%      0.0%     
 flops    32 x     6 x     6       21794242235904       0.0%    100.0%      0.0%     
 flops    32 x     6 x     3       23208241821696       0.0%    100.0%      0.0%     
 flops    32 x     3 x     6       23281053366528       0.0%    100.0%      0.0%     
 flops    32 x    30 x    32       24002959011840       0.0%    100.0%      0.0%     
 flops     6 x     6 x    32       24885331474176       0.0%    100.0%      0.0%     
 flops     3 x    13 x    27       26815066968690       0.0%    100.0%      0.0%     
 flops     3 x    27 x    13       26902530808218       0.0%    100.0%      0.0%     
 flops    32 x    32 x    30       27690616688640       0.0%    100.0%      0.0%     
 flops    27 x    13 x     3       28767515634000       0.0%    100.0%      0.0%     
 flops    27 x     3 x    13       28862183749932       0.0%    100.0%      0.0%     
 flops     3 x     6 x    32       31329990214272       0.0%    100.0%      0.0%     
 flops     3 x    32 x     6       31424536135296       0.0%    100.0%      0.0%     
 flops     3 x    13 x    13       47326276353096       0.0%    100.0%      0.0%     
 flops    13 x    13 x     3       55142126007306       0.0%    100.0%      0.0%     
 flops    32 x     6 x    27       64813189692672       0.0%    100.0%      0.0%     
 flops    32 x    27 x     6       65010636630144       0.0%    100.0%      0.0%     
 flops    27 x    13 x    27       75428862597738       0.0%    100.0%      0.0%     
 flops    27 x    27 x    13       75672134704764       0.0%    100.0%      0.0%     
 flops    27 x     6 x    32       88135064257536       0.0%    100.0%      0.0%     
 flops    27 x    32 x     6       88401175193088       0.0%    100.0%      0.0%     
 flops    27 x    13 x    13      126279933338754       0.0%    100.0%      0.0%     
 flops    13 x    13 x    27      144572291531460       0.0%    100.0%      0.0%     
 flops    32 x    13 x     6      146922470313216       0.0%    100.0%      0.0%     
 flops     6 x    13 x    32      175729857598464       0.0%    100.0%      0.0%     
 flops    32 x     6 x    13      181338230052096       0.0%    100.0%      0.0%     
 flops    13 x     6 x    32      207880732345728       0.0%    100.0%      0.0%     
 flops    32 x    13 x     3      217616127535872       0.0%    100.0%      0.0%     
 flops    32 x     3 x    13      218313716789376       0.0%    100.0%      0.0%     
 flops     3 x    13 x    32      263995348256640       0.0%    100.0%      0.0%     
 flops     3 x    32 x    13      264813454017216       0.0%    100.0%      0.0%     
 flops    32 x    13 x    27      571370063142528       0.0%    100.0%      0.0%     
 flops    32 x    27 x    13      573176713876416       0.0%    100.0%      0.0%     
 flops    32 x     6 x    32      667888034082816       0.0%    100.0%      0.0%     
 flops    32 x    32 x     6      669872074616832       0.0%    100.0%      0.0%     
 flops    27 x    13 x    32      743691368032704       0.0%    100.0%      0.0%     
 flops    27 x    32 x    13      745989367795776       0.0%    100.0%      0.0%     
 flops    32 x    13 x    13     1222447758466688       0.0%    100.0%      0.0%     
 flops    13 x    13 x    32     1472657077578752       0.0%    100.0%      0.0%     
 flops    32 x    13 x    32     5628119351908352       0.0%    100.0%      0.0%     
 flops    32 x    32 x    13     5645098813419520       0.0%    100.0%      0.0%     
 flops inhomo. stacks                           0       0.0%      0.0%      0.0%
 flops total                        20.974002E+15       0.0%    100.0%      0.0%
 flops max/rank                    676.897902E+12       0.0%    100.0%      0.0%
 matmuls inhomo. stacks                         0       0.0%      0.0%      0.0%
 matmuls total                      1971391131108       0.0%    100.0%      0.0%
 number of processed stacks            6388157020       0.0%    100.0%      0.0%
 average stack size                                     0.0     308.6       0.0
 marketing flops                   114.750144E+15
 -------------------------------------------------------------------------------
 # multiplications                         114933
 max memory usage/rank              27.005682E+09
 # max total images/rank                        2
 # max 3D layers                                1
 # MPI messages exchanged                47812128
 MPI messages size (bytes):
  total size                       517.224087E+12
  min size                           0.000000E+00
  max size                          75.829264E+06
  average size                      10.817843E+06
 MPI breakdown and total messages size (bytes):
             size <=      128               16020                        0
       128 < size <=     8192                  12                    16224
      8192 < size <=    32768                   0                        0
     32768 < size <=   131072                  45                  4740840
    131072 < size <=  4194304            33057587           70452854479680
   4194304 < size <= 16777216             9587808          103757638299392
  16777216 < size                         5150656          341250169325520
 -------------------------------------------------------------------------------

 *** WARNING in dbcsr_mm.F:301 :: Using a non-square number of MPI ranks ***
 *** might lead to poor performance. Used ranks: 32 Suggested: 36 64     ***

 -------------------------------------------------------------------------------
 -                                                                             -
 -                      DBCSR MESSAGE PASSING PERFORMANCE                      -
 -                                                                             -
 -------------------------------------------------------------------------------
 ROUTINE             CALLS      AVE VOLUME [Bytes]
 MP_Bcast              137                     12.
 MP_Allreduce       460104                    147.
 MP_Alltoall        941901                 767657.
 MP_ISend          4835110                3357024.
 MP_IRecv          4834892                3377009.
 -------------------------------------------------------------------------------

 -------------------------------------------------------------------------------
 -                                                                             -
 -                                GRID STATISTICS                              -
 -                                                                             -
 -------------------------------------------------------------------------------
 LP    KERNEL             BACKEND                              COUNT     PERCENT
 3     collocate ortho    CPU                                  19140      25.40%
 3     integrate ortho    CPU                                  19140      25.40%
 4     collocate ortho    CPU                                  11880      15.77%
 4     integrate ortho    CPU                                  11880      15.77%
 2     collocate ortho    CPU                                   6208       8.24%
 2     integrate ortho    CPU                                   6208       8.24%
 0     collocate general  CPU                                    592       0.79%
 0     integrate general  CPU                                    296       0.39%
 -------------------------------------------------------------------------------

 -------------------------------------------------------------------------------
 -                                                                             -
 -                          OFFLOAD MEMPOOL STATISTICS                         -
 -                                                                             -
 -------------------------------------------------------------------------------
 Memory consumption                Number of allocations  Used [MiB]  Size [MiB]
 Host                                                  6          73    22057343
 -------------------------------------------------------------------------------

 MEMORY| Estimated peak process memory [MiB]                                4331

 -------------------------------------------------------------------------------
 ----                             MULTIGRID INFO                            ----
 -------------------------------------------------------------------------------
 count for grid        1:         195020          cutoff [a.u.]          300.00
 count for grid        2:         181377          cutoff [a.u.]          100.00
 count for grid        3:         219580          cutoff [a.u.]           33.33
 count for grid        4:         140743          cutoff [a.u.]           11.11
 total gridlevel count  :         736720

 -------------------------------------------------------------------------------
 -                                                                             -
 -                         MESSAGE PASSING PERFORMANCE                         -
 -                                                                             -
 -------------------------------------------------------------------------------

 ROUTINE             CALLS      AVE VOLUME [Bytes]
 MP_Group               25
 MP_Bcast              795                  90112.
 MP_Allreduce       115786                  76825.
 MP_Sync                12
 MP_Alltoall            86               60362726.
 MP_SendRecv           248                 352800.
 MP_ISendRecv          248                 352800.
 MP_Wait               705
 MP_comm_split          12
 MP_ISend              408                1454250.
 MP_IRecv              408                1454377.
 -------------------------------------------------------------------------------


 -------------------------------------------------------------------------------
 -                                                                             -
 -                           R E F E R E N C E S                               -
 -                                                                             -
 -------------------------------------------------------------------------------
 
 CP2K version 2026.2 (Development Version), the CP2K developers group (2026).
 CP2K is freely available from https://www.cp2k.org/ .
 
 M. Iannuzzi, J. Wilhelm, F. Stein, A. Bussy, H. Elgabarty, D. Golze, A. Hehn, 
 M. Graml, S. Marek, B. Sertcan Gökmen, C. Schran, H. Forbert, R. Z. 
 Khaliullin, A. Kozhevnikov, M. Taillefumier, R. Meli, V. V. Rybkin, M. Brehm, 
 R. Schade, O. Schütt, J. V. Pototschnig, H. Mirhosseini, A. Knüpfer, D. Marx, 
 M. Krack, J. Hutter, T. D. Kühne.
 J. Phys. Chem. B 130, 1237-1310 (2026).
 The CP2K Program Package Made Simple.
 https://doi.org/10.1021/acs.jpcb.5c05851

 M. Graml, K. Zollner, D. Hernangómez-Pérez, P. E. Faria Junior, J. Wilhelm.
 J. Chem. Theory Comput. 20, 2202-2208 (2024).
 Low-scaling GW algorithm applied to twisted transition-metal dichalcogenide 
 heterobilayers.
 https://doi.org/10.1021/acs.jctc.3c01230

 T. D. Kühne, M. Iannuzzi, M. Del Ben, V. V. Rybkin, P. Seewald, F. Stein, T. 
 Laino, R. Z. Khaliullin, O. Schütt, F. Schiffmann, D. Golze, J. Wilhelm, S. 
 Chulkov, M. H. Bani-Hashemian, V. Weber, U. Borstnik, M. Taillefumier, A. S. 
 Jakobovits, A. Lazzaro, H. Pabst, T. Müller, R. Schade, M. Guidon, S. 
 Andermatt, N. Holmberg, G. K. Schenter, A. Hehn, A. Bussy, F. Belleflamme, G. 
 Tabacchi, A. Glöß, M. Lass, I. Bethune, C. J. Mundy, C. Plessl, M. Watkins, 
 J. VandeVondele, M. Krack, J. Hutter.
 J. Chem. Phys. 152, 194103 (2020).
 CP2K: An electronic structure and molecular dynamics software package - 
 Quickstep: Efficient and accurate electronic structure calculations.
 https://doi.org/10.1063/5.0007045

 O. Schuett, P. Messmer, J. Hutter, J. VandeVondele.
 Electronic Structure Calculations on Graphics Processing Units, 173-190 (2016).
 GPU-Accelerated Sparse Matrix-Matrix Multiplication for Linear Scaling Density 
 Functional Theory.
 https://doi.org/10.1002/9781118670712.ch8

 A. Heinecke, G. Henry, M. Hutchinson, H. Pabst.
 Proceedings of Intl. Supercomputing Conference, 981-991 (2016).
 LIBXSMM: Accelerating Small Matrix Multiplications by Runtime Code Generation.
 https://doi.org/10.1109/SC.2016.83

 U. Borstnik, J. VandeVondele, V. Weber, J. Hutter.
 Parallel Comput. 40, 47-58 (2014).
 Sparse matrix multiplication: The distributed block-compressed sparse row 
 library.
 https://doi.org/10.1016/j.parco.2014.03.012

 A. Marek, V. Blum, R. Johanni, V. Havu, B. Lang, T. Auckenthaler, A. Heinecke, 
 H. Bungartz, H. Lederer.
 J. Phys. Condens. Matter 26, 213201 (2014).
 The ELPA library: scalable parallel eigenvalue solutions for electronic 
 structure theory and computational science.
 https://doi.org/10.1088/0953-8984/26/21/213201

 J. VandeVondele, J. Hutter.
 J. Chem. Phys. 127, 114105 (2007).
 Gaussian basis sets for accurate calculations on molecular systems in gas and 
 condensed phases.
 https://doi.org/10.1063/1.2770708

 J. VandeVondele, M. Krack, F. Mohamed, M. Parrinello, T. Chassaing, J. Hutter.
 Comput. Phys. Commun. 167, 103-128 (2005).
 QUICKSTEP: Fast and accurate density functional calculations using a mixed 
 Gaussian and plane waves approach.
 https://doi.org/10.1016/j.cpc.2004.12.014

 M. Krack.
 Theor. Chem. Acc. 114, 145-152 (2005).
 Pseudopotentials for H to Kr optimized for gradient-corrected 
 exchange-correlation functionals.
 https://doi.org/10.1007/s00214-005-0655-y

 M. Frigo, S. G. Johnson.
 Proc. IEEE 93, 216-231 (2005).
 The design and implementation of FFTW3.
 https://doi.org/10.1109/JPROC.2004.840301

 C. Hartwigsen, S. Goedecker, J. Hutter.
 Phys. Rev. B 58, 3641-3662 (1998).
 Relativistic separable dual-space Gaussian pseudopotentials from H to Rn.
 https://doi.org/10.1103/PhysRevB.58.3641

 G. Lippert, J. Hutter, M. Parrinello.
 Mol. Phys. 92, 477-487 (1997).
 A hybrid Gaussian and plane wave density functional scheme.
 https://doi.org/10.1080/002689797170220

 S. Goedecker, M. Teter, J. Hutter.
 Phys. Rev. B 54, 1703-1710 (1996).
 Separable dual-space Gaussian pseudopotentials.
 https://doi.org/10.1103/PhysRevB.54.1703

 J. P. Perdew, K. Burke, M. Ernzerhof.
 Phys. Rev. Lett. 77, 3865-3868 (1996).
 Generalized gradient approximation made simple.
 https://doi.org/10.1103/PhysRevLett.77.3865

 P. E. Blöchl.
 J. Chem. Phys. 103, 7422-7428 (1995).
 Electrostatic decoupling of periodic images of plane‐wave‐expanded 
 densities and derived atomic point charges.
 https://doi.org/10.1063/1.470314

 R. H. Byrd, P. H. Lu, J. Nocedal, C. Y. Zhu.
 SIAM J. Sci. Comput. 16, 1190-1208 (1995).
 A Limited Memory Algorithm for Bound Constrained Optimization.
 https://doi.org/10.1137/0916069

 C. G. Broyden.
 Math. Comput. 19, 577-593 (1965).
 A class of methods for solving nonlinear simultaneous equations.
 https://doi.org/10.1090/S0025-5718-1965-0198670-6


 -------------------------------------------------------------------------------
 -                                                                             -
 -                                T I M I N G                                  -
 -                                                                             -
 -------------------------------------------------------------------------------
 SUBROUTINE                       CALLS  ASD         SELF TIME        TOTAL TIME
                                MAXIMUM       AVERAGE  MAXIMUM  AVERAGE  MAXIMUM
 CP2K                                 1  1.0     0.11     0.18 11507.10 11507.15
 run_propagation_linearized_bse       1  2.0     0.31     2.55 11505.61 11506.06
 solve_rk4_timestep                2861  3.0     0.49     0.72 10770.33 10771.54
 build_shared_sex_and_hartree     11444  4.0     0.48     0.63  9550.32  9557.45
 compute_sigma_ri_rs_complex      11444  5.0     0.20     0.22  8541.94  8550.82
 compute_sigma_ri_rs              22888  6.0     1.32     1.40  8524.34  8531.47
 dbcsr_multiply_generic          114933  7.8     7.90     8.37  7676.46  7909.27
 dbcsr_contract_ABA               45777  7.0     0.61     0.67  7283.74  7505.78
 multiply_cannon                 114933  8.8    15.50    16.70  5682.28  6105.89
 multiply_cannon_loop            114933  9.8    15.87    16.66  5278.96  5725.62
 multiply_cannon_multrec         919464 10.8  2974.68  3124.64  2978.35  3128.81
 mp_waitall_1                   7356037 12.0  2326.26  2710.82  2326.26  2710.82
 multiply_cannon_metrocomm3      919464 10.8     2.34     2.58  1218.34  1648.61
 parallel_gemm_fm_cosma          183560  6.0  1593.89  1603.17  1593.89  1603.17
 make_m2s                        229866  8.8     3.84     3.99  1250.94  1320.77
 make_images                     229866  9.8   187.58   238.06  1237.12  1306.89
 update_effective_ham_MO          11444  4.0     0.94     1.36  1219.05  1224.37
 make_images_data                229866 10.8     3.06     3.21   805.59   898.77
 hybrid_alltoall_any             275757 11.3    66.98   375.56   782.43   887.25
 transform_ao_to_mo_covariant_c   22888  5.0     0.27     0.35   845.52   851.16
 calculate_norms                1837872 10.8   671.13   770.73   671.13   770.73
 transform_mo_to_ao_contravaria   22889  5.0     0.23     0.27   728.16   734.85
 qs_energies                          1  3.0     0.01     0.03   696.91   696.92
 qs_energies_properties               1  4.0     0.00     0.01   686.52   686.53
 post_scf_bandstructure               1  5.0     0.00     0.01   686.52   686.53
 gw                                   1  6.0     0.00     0.02   681.22   681.24
 gw_calc_non_periodic_ri_rs           1  7.0     0.00     0.01   678.41   678.46
 compute_hartree_ri_rs_from_dia   11444  5.0     0.19     0.23   641.60   648.96
 hartree_potential_from_diag_ri   22888  6.0    61.97    68.19   626.38   635.70
 ri_rs_grid_assembler                 1  8.0     0.00     0.01   548.72   548.78
 optimize_ri_rs_grid                  1  9.0    14.14    14.77   548.66   548.72
 mp_sum_l                        344975  8.8   357.92   545.58   357.92   545.58
 evaluate_rirs_grid_cluster        2010 10.0   515.10   531.03   515.10   531.03
 dbcsr_complete_redistribute      68940  8.0   164.76   177.01   499.01   511.85
 copy_dbcsr_to_fm                 45887  7.0     0.82     0.88   448.08   489.21
 multiply_cannon_metrocomm1      919464 10.8     1.56     1.69   381.65   427.52
 mp_sum_dv                        91828  7.0   295.80   398.74   295.80   398.74
 buffer_matrices_ensure_size     229866  9.8   264.38   309.82   264.38   309.82
 hadamard_product_inplace         22888  7.0   262.97   276.24   263.05   276.32
 make_images_sizes               229866 10.8     0.28     0.31   114.98   243.19
 mp_alltoall_i44                 229866 11.8   114.70   242.89   114.70   242.89
 dbcsr_finalize                  231111  8.9     3.07     3.24   203.73   218.29
 dbcsr_merge_all                 185023  9.9    82.72   100.59   195.50   210.22
 copy_fm_to_dbcsr                 23053  7.0     0.14     0.15   195.55   202.29
 mp_alltoall_i22                 114831  9.0   168.42   193.81   168.42   193.81
 mp_allgather_i34                114933  9.8    87.72   178.21    87.72   178.21
 dbcsr_copy                      275824  8.5   152.93   169.25   154.79   171.10
 mp_alltoall_d11v                344501  9.4   149.74   163.44   149.74   163.44
 dbcsr_add_wm_from_matrix         23066  9.0   114.42   154.52   138.99   158.63
 dbcsr_desymmetrize_deep          45891  8.0    21.43    25.15   117.87   149.59
 make_images_pack                229866 10.8    59.90   106.06    61.84   108.01
 dbcsr_set                        92027  8.5     0.21     0.24    88.15    96.16
 dbcsr_zero                       92027  9.5    87.94    95.97    87.94    95.97
 dbcsr_sort_data                 321885 12.2    72.23    82.52    72.23    82.52
 dbcsr_data_copy_aa2              92233 11.0    43.36    72.78    43.36    72.78
 dbcsr_scale_anytype              46801  8.6    64.76    67.85    67.15    70.38
 dbcsr_special_finalize          344799 10.8     1.31     1.55    55.25    59.14
 compute_W                            1  8.0     0.00     0.00    49.37    49.40
 dbcsr_merge_single_wm           229866 11.8     9.07    16.85    44.38    48.11
 mp_sum_d                         23569  4.0    20.50    47.78    20.50    47.78
 compute_Sigma_c_and_QP_energie       1  8.0     0.00     0.00    44.47    44.49
 dbcsr_fill_wm_from_matrix        23066 10.0    23.74    42.80    23.95    43.01
 compute_Sigma_c                      1  9.0     0.00     0.00    38.49    38.49
 compute_fm_W_freq                   30  9.0     0.00     0.00    36.50    36.56
 contract_grid_panels_sigma_c        30 10.0     0.00     0.00    33.52    33.57
 cp_fm_to_cfm                     91557  6.0    24.33    28.50    24.33    28.50
 dbcsr_data_release             ******* 10.7    24.69    28.38    24.69    28.38
 tree_to_linear_d                 68961 11.0    23.87    26.64    23.87    26.64
 get_mat_chi_Gamma_tau                1  8.0     0.00     0.00    25.63    25.63
 cp_cfm_to_fm                     80113  5.6    22.47    25.55    22.47    25.55
 mp_cart_create                   45918  9.0    19.38    23.62    19.38    23.62
 contract_grid_panels                31  9.0     0.00     0.00    22.62    22.87
 mp_cart_sub                      91788  9.0    22.75    22.81    22.75    22.81
 dbcsr_destroy                  1310503  8.9     1.98     2.03    17.24    20.56
 setup_rec_index_2d              229866  9.8    19.97    20.44    19.97    20.44
 dbcsr_get_diag                   22888  7.0    16.56    17.52    16.60    17.56
 dbcsr_sort_indices              666681 11.9    16.54    17.08    16.54    17.08
 copy_dbcsr_to_fm_bc              45887  8.0    14.09    16.58    14.42    16.91
 mp_alltoall_i11v                252711  9.0    11.34    16.33    11.34    16.33
 cp_cfm_transpose                 22888  5.0     8.29    12.48     8.29    12.48
 copy_fm_to_dbcsr_bc              23053  8.0     4.16     4.99     9.81    12.19
 cp_fm_write_formatted             5722  3.0     8.42     9.34     9.63    12.03
 mp_send_dv                       11450  4.0     2.37    11.38     2.37    11.38
 cp_fm_cholesky_invert               31 10.0    11.25    11.26    11.25    11.26
 cp_fm_write_unformatted           5725  3.0     7.45     8.35     8.81    11.25
 cp_cfm_scale_and_add             88704  5.0     9.60    11.11     9.60    11.11
 dbcsr_create_new               1356438  9.8     7.58     8.14    10.42    11.01
 quick_finalize                  160824 11.3     1.30     1.36    10.03    10.57
 dbcsr_make_index_list           344799  9.8     9.59     9.94     9.59     9.94
 release_dbcsr_topology_and_mat   68667  7.0     0.11     0.12     6.15     9.04
 print_ft                             1  3.0     0.00     0.06     8.47     8.90
 greenx_refine_ft                     3  4.0     8.47     8.90     8.47     8.90
 mp_isend_dv                    2418376 12.1     7.49     8.65     7.49     8.65
 compute_Z_lP                         1  8.0     0.00     0.00     8.52     8.52
 compute_Z_lP_standard                1  9.0     0.01     0.01     8.52     8.52
 multiply_cannon_metrocomm2      689598 10.8     1.58     1.64     7.06     8.49
 cp_fm_trace_a0b0t0               17172  3.0     1.37     2.02     4.23     7.99
 multiply_cannon_metrocomm4      804531 10.8     2.13     2.21     6.55     7.89
 build_G_ao                         121  9.5     0.00     0.00     7.64     7.80
 dbcsr_reserve_all_blocks         23056  9.0     0.08     0.09     5.18     7.41
 dbcsr_reserve_blocks             23070 10.0     5.04     7.25     5.11     7.34
 dbcsr_new_transposed             68912  8.7     1.04     1.12     6.54     7.23
 G_occ_vir                          121 10.5     0.41     0.45     6.65     6.79
 cp_fm_transpose                  17173  3.0     4.14     6.72     4.14     6.72
 dbcsr_make_untransposed_blocks  137979  8.8     4.62     5.05     6.23     6.60
 mp_recv_dv                      137456  4.0     0.20     6.46     0.20     6.46
 dbcsr_mm_multrec_init           114933  9.8     0.25     0.30     6.02     6.28
 dbcsr_mm_csr_init               114933 10.8     1.74     1.82     5.77     6.04
 compute_QP_energies                  1  9.0     0.00     0.00     5.98     5.99
 scf_env_do_scf                       1  4.0     0.00     0.00     5.97     5.98
 scf_env_do_scf_inner_loop            3  5.0     0.00     0.00     5.97     5.98
 dbcsr_data_new                 6316495 10.3     5.26     5.58     5.26     5.58
 cp_fm_cholesky_decompose            34 10.0     5.12     5.45     5.12     5.45
 cp_fm_diag_elpa                      7  8.3     0.00     0.00     5.21     5.21
 cp_fm_diag_elpa_base                 7  9.3     5.14     5.20     5.21     5.21
 dbcsr_iterator_start           1104088  9.9     3.06     3.15     4.71     5.07
 mp_isend_iv                    2647548 11.8     3.74     4.82     3.74     4.82
 to_Gamma_and_mo_real                62 10.0     0.01     0.01     4.80     4.80
 dbcsr_work_create               575713 10.1     2.93     3.11     4.42     4.65
 dbcsr_work_destroy_all          575713 11.1     2.97     3.11     4.37     4.58
 multiply_cannon_multrec_finali  114933 11.8     0.24     0.29     3.67     4.17
 fill_hash_tables                114933 11.8     3.84     4.11     3.84     4.11
 dbcsr_mm_multrec_finalize       114933 12.8     2.83     3.08     3.43     3.92
 mp_irecv_dv                    2418213 12.1     2.82     3.88     2.82     3.88
 compute_d_lp                        10 10.0     1.70     1.89     3.37     3.82
 eval_bandstructure_properties        1  6.0     0.00     0.00     3.59     3.59
 transpose_index_local            68912  9.7     0.44     0.47     3.16     3.40
 dbcsr_iterator_stop            1104088  9.9     2.75     2.92     3.14     3.34
 setup_buffer_matrices           229866  9.8     1.11     1.24     3.06     3.20
 cp_cfm_geeig                         1  7.0     0.00     0.00     3.05     3.06
 create_and_init_bs_env_for_gw        1  7.0     0.00     0.00     2.81     2.95
 fft_wrap_pw1pw2                     64 11.1     0.00     0.00     2.69     2.72
 abc_contract_xsmm               168776 10.2     2.53     2.68     2.53     2.68
 fft_wrap_pw1pw2_300                 40 12.3     0.07     0.08     2.60     2.63
 cp_cfm_heevd                         1  8.0     0.00     0.00     2.61     2.61
 cp_cfm_heevd_base                    1  9.0     2.61     2.61     2.61     2.61
 qs_scf_new_mos                       3  6.0     0.00     0.00     2.56     2.57
 qs_ks_build_kohn_sham_matrix         4  8.2     0.01     0.02     2.54     2.56
 dbcsr_scale_d                    22919  7.0     0.05     0.06     2.48     2.53
 eigensolver_symm                     3  7.0     0.00     0.00     2.44     2.45
 fft3d_ps                            64 13.1     0.44     0.46     2.39     2.42
 qs_ks_update_qs_env                  3  6.0     0.00     0.00     2.16     2.16
 rebuild_ks_matrix                    3  7.0     0.00     0.00     2.15     2.16
 init_scf_run                         1  4.0     0.00     0.00     2.14     2.14
 qs_energies_init_hamiltonians        1  4.0     0.01     0.01     2.10     2.10
 qs_env_update_s_mstruct              1  5.0     0.00     0.00     2.04     2.07
 mp_sum_iv                       114993  9.8     1.72     2.06     1.72     2.06
 mp_irecv_iv                    2647559 11.8     1.71     2.04     1.71     2.04
 mask_mo_block_cfm                34332  5.0     1.30     2.04     1.30     2.04
 dbcsr_iterator_seek            1104088 10.9     1.66     1.97     1.66     1.97
 dbcsr_make_index_exist         1356438 10.8     1.79     1.94     1.79     1.94
 cp_fm_uplo_to_full                  68 10.0     1.12     1.80     1.12     1.80
 mp_alltoall_z22v                    64 15.1     1.75     1.78     1.75     1.78
 create_and_init_bs_env               1  6.0     0.00     0.00     1.71     1.72
 compute_Sigma_x                      1  8.0     0.00     0.00     1.65     1.69
 build_gram_jacobi_blas              10 10.0     0.40     0.42     1.59     1.66
 get_RI_basis                         1  8.0     0.00     0.00     1.60     1.63
 compute_Minv_Gamma                   1  9.0     0.00     0.01     1.60     1.63
 hadamard_product                    91 10.7     1.00     1.03     1.56     1.63
 dbcsr_make_dbcsr_index          667703 11.9     1.52     1.58     1.52     1.58
 merge_index                     185023 10.9     1.51     1.56     1.51     1.56
 qs_rho_update_rho_low                4  6.0     0.00     0.00     1.52     1.52
 calculate_rho_elec                   4  7.0     0.03     0.03     1.52     1.52
 diagonalize_ks_matrix                1  7.0     0.00     0.00     1.52     1.52
 cp_fm_geeig_canon                    1  8.0     0.00     0.00     1.52     1.52
 compute_Z_lP_standard_dpotrf        10 10.0     1.35     1.41     1.35     1.41
 calculate_rho_core                   1  6.0     0.02     0.03     1.33     1.37
 yz_to_x                             30 13.6     0.09     0.09     1.30     1.32
 compute_d_lp_dgemm                5540 11.0     1.11     1.27     1.11     1.27
 compute_fm_chi_Gamma_freq           30  9.0     0.00     0.00     1.17     1.26
 build_gram_jacobi_blas_dsyrk        10 11.0     1.19     1.25     1.19     1.25
 qs_vxc_create                        4  9.2     0.00     0.00     1.20     1.20
 xc_vxc_pw_create                     3 10.0     0.03     0.03     1.20     1.20
 RI_2c_integral_mat                   4  7.2     0.01     0.01     1.16     1.20
 cp_fm_geeig                          1 10.0     0.00     0.00     1.17     1.17
 mp_sync                             12  9.2     0.45     1.14     0.45     1.14
 build_phi_on_sphere                 10 10.0     0.08     0.09     0.99     1.08
 dbcsr_distribution_new          414343  8.8     1.01     1.07     1.01     1.07
 evaluate_ao_on_points             1602 11.0     0.93     1.01     0.93     1.01
 get_electron_number_MO            2861  3.0     0.03     0.04     0.64     1.01
 initialize_sex_selfenergy            1  3.0     0.00     0.00     1.00     1.00
 rt_bse_ri_rs_ensure_W0_grid          1  4.0     0.00     0.00     1.00     1.00
 scf_env_initial_rho_setup            1  5.0     0.00     0.00     0.95     0.96
 mp_comm_free                    137765  9.0     0.91     0.95     0.91     0.95
 compute_V_MinvVsqrt                  1  9.0     0.00     0.01     0.88     0.89
 xc_pw_derive                        18 12.0     0.00     0.00     0.86     0.88
 build_2c_integrals                   4  8.2     0.41     0.66     0.80     0.83
 transfer_rs2pw                      18  8.8     0.00     0.00     0.75     0.83
 multrec_filtering                91978 13.8     0.53     0.82     0.53     0.82
 sum_up_and_integrate                 4  9.2     0.00     0.00     0.82     0.82
 integrate_v_rspace                   4 10.2     0.00     0.00     0.82     0.82
 extract_masked_blocks              244 10.6     0.58     0.61     0.67     0.79
 mp_waitany                         380 12.2     0.66     0.77     0.66     0.77
 grid_collocate_task_list             4  8.0     0.75     0.76     0.75     0.76
 density_rs2pw                        4  8.0     0.00     0.00     0.72     0.75
 transfer_rs2pw_300                   6  9.5     0.04     0.04     0.61     0.68
 cp_ddapc_init                        1  6.0     0.00     0.00     0.67     0.68
 cp_ddapc_create                      1  7.0     0.00     0.00     0.67     0.68
 setup_square_topology            45902  7.0     0.44     0.54     0.57     0.67
 x_to_yz                             34 14.5     0.11     0.11     0.64     0.66
 setup_time_and_frequency_minim       1  8.0     0.00     0.00     0.64     0.66
 build_minimax_time_frequency_g       1  9.0     0.00     0.00     0.64     0.66
 ddapc_eval_AmI                       1  8.0     0.06     0.09     0.62     0.66
 fit_l_sq_weights                     3 10.0     0.64     0.65     0.64     0.65
 potential_pw2rs                      4 11.2     0.00     0.00     0.61     0.61
 cp_fm_scale_and_add                935  9.9     0.58     0.61     0.58     0.61
 xc_rho_set_and_dset_create           3 11.0     0.02     0.03     0.59     0.60
 parallel_gemm_cfm                   16  6.5     0.00     0.00     0.59     0.60
 parallel_gemm_cfm_cosma             16  7.5     0.59     0.60     0.59     0.60
 Fourier_transform_w_to_t            30  9.0     0.00     0.00     0.57     0.60
 xc_pw_divergence                     3 11.0     0.00     0.00     0.57     0.58
 initialize_hartree_potential         1  3.0     0.00     0.00     0.58     0.58
 rt_bse_ri_rs_ensure_V_grid           1  4.0     0.00     0.00     0.58     0.58
 mp_max_l                            22  1.8     0.45     0.57     0.45     0.57
 extract_grid_panel                 122 10.5     0.39     0.47     0.45     0.57
 dbcsr_add_d                        931 10.0     0.00     0.00     0.52     0.55
 dbcsr_add_anytype                  931 11.0     0.38     0.40     0.52     0.55
 cp_fm_create                     34742  6.0     0.46     0.54     0.46     0.54
 mp_bcast_dm                          2 11.5     0.47     0.54     0.47     0.54
 dbcsr_switch_data_area          459628 10.7     0.32     0.35     0.50     0.53
 qs_init_subsys                       1  2.0     0.02     0.04     0.52     0.53
 qs_env_setup                         1  3.0     0.01     0.01     0.49     0.52
 qs_env_rebuild_pw_env                2  4.0     0.00     0.00     0.48     0.52
 pw_env_rebuild                       1  5.0     0.00     0.01     0.48     0.52
 compute_proj_mo_on_kind              1  7.0     0.00     0.00     0.52     0.52
 pw_grid_setup                        5  5.2     0.00     0.00     0.46     0.51
 pw_grid_setup_internal               5  6.2     0.01     0.01     0.46     0.51
 compute_Z_lP_standard_dpotrs        10 10.0     0.44     0.48     0.44     0.48
 cp_cfm_zscale                    22888  5.0     0.31     0.47     0.31     0.47
 dbcsr_make_index_local_row      344799  9.8     0.38     0.43     0.38     0.43
 build_A_matrix                       1  9.0     0.39     0.43     0.39     0.43
 compute_V_xc                         1  8.0     0.00     0.00     0.39     0.41
 transfer_pw2rs                      17 12.0     0.00     0.00     0.41     0.41
 fill_fm_Sigma_c_Gamma_time           1 10.0     0.00     0.00     0.37     0.37
 calculate_first_density_matrix       1  6.0     0.00     0.01     0.35     0.37
 qs_ks_ddapc                          4  9.2     0.00     0.00     0.34     0.34
 collect_used_col_blocks             92 10.7     0.01     0.01     0.25     0.34
 dbcsr_get_data_size_used        230914  9.9     0.31     0.34     0.31     0.34
 dbcsr_binary_write                   1 10.0     0.30     0.30     0.30     0.30
 gw_3c_ctx_create                     2 10.0     0.01     0.24     0.24     0.30
 cp_cfm_cholesky_decompose            2  8.0     0.28     0.29     0.28     0.29
 pw_grid_sort                         5  7.2     0.17     0.18     0.27     0.28
 parser_read_line                 21084  4.0     0.00     0.00     0.21     0.27
 parser_read_line_low                26  5.1     0.00     0.03     0.21     0.26
 broadcast_input_information         26  6.1     0.01     0.02     0.20     0.26
 transfer_pw2rs_300                   5 12.4     0.04     0.04     0.22     0.25
 fm_write                             1  9.0     0.00     0.01     0.21     0.24
 check_for_restart_files              1  8.0     0.09     0.23     0.09     0.23
 dbcsr_get_local_cols            114933  8.8     0.21     0.22     0.21     0.22
 initialize_moments                   1  3.0     0.01     0.01     0.22     0.22
 cp_fm_triangular_invert              1 11.0     0.21     0.21     0.21     0.21
 dbcsr_mm_sched_init             114933 11.8     0.14     0.15     0.19     0.21
 grid_integrate_task_list             4 11.2     0.20     0.21     0.20     0.21
 mp_sum_dm                            4  7.2     0.18     0.20     0.18     0.20
 create_qs_kind_set                   1  2.0     0.00     0.00     0.19     0.20
 read_qs_kind                         2  3.0     0.04     0.05     0.19     0.20
 dbcsr_get_local_rows            114933  8.8     0.17     0.20     0.17     0.20
 make_basis_sm                        1  7.0     0.00     0.00     0.19     0.19
 mp_bcast_am_src                     26  7.1     0.11     0.18     0.11     0.18
 calculate_dm_sparse                  4  7.0     0.00     0.00     0.16     0.18
 cp_dbcsr_plus_fm_fm_t                4  8.0     0.00     0.00     0.16     0.18
 initialize_rtbse_env                 1  3.0     0.17     0.17     0.18     0.18
 gspace_mixing                        2  6.0     0.02     0.02     0.16     0.16
 cp_cfm_triangular_invert             1  8.0     0.16     0.16     0.16     0.16
 cp_ddapc_apply_CD                    4 10.2     0.00     0.00     0.16     0.16
 scf_post_calculation_gpw             1  4.0     0.00     0.00     0.16     0.16
 write_available_results              1  5.0     0.00     0.00     0.15     0.16
 write_mo_free_results                1  6.0     0.01     0.01     0.15     0.16
 mixing_init                          1  6.0     0.16     0.16     0.16     0.16
 ab_contract                     360611  9.0     0.15     0.16     0.15     0.16
 check_positive_definite_overla       1  7.0     0.00     0.00     0.16     0.16
 mp_isend_dm3                        76 12.2     0.08     0.15     0.08     0.15
 cp_cfm_triangular_multiply           3  8.0     0.14     0.15     0.14     0.15
 cp_fm_copy_general                   4  8.2     0.00     0.00     0.13     0.14
 transform_ao_to_mo_covariant_f       6  4.0     0.00     0.00     0.13     0.13
 xc_functional_eval                   3 12.0     0.00     0.00     0.11     0.12
 pbe_lda_eval                         3 13.0     0.11     0.12     0.11     0.12
 pw_poisson_solve                     4  9.2     0.00     0.00     0.12     0.12
 eval_pw_TabLR                        1  2.0     0.08     0.09     0.11     0.12
 cp_dbcsr_sm_fm_multiply              1  8.0     0.00     0.00     0.12     0.12
 transfer_pw2rs_100                   4 13.2     0.01     0.01     0.09     0.12
 build_2c_coulomb_matrix_kp           1 10.0     0.00     0.00     0.11     0.11
 lattice_sum                          1 11.0     0.00     0.00     0.11     0.11
 cp_dbcsr_sm_fm_multiply_core         1  9.0     0.00     0.00     0.09     0.11
 topology_control                     1  2.0     0.01     0.01     0.08     0.11
 coordinate_control                   1  3.0     0.00     0.00     0.07     0.10
 coordinate_control_READ_COORDI       1  4.0     0.00     0.00     0.07     0.10
 read_coordinate_xyz                  1  5.0     0.00     0.01     0.06     0.10
 cp_fm_symm                           3  8.0     0.10     0.10     0.10     0.10
 pw_scatter_p                        34 13.5     0.10     0.10     0.10     0.10
 dbcsr_get_global_row_map        114933  8.8     0.08     0.10     0.08     0.10
 cp_fm_triangular_multiply            4 10.2     0.10     0.10     0.10     0.10
 pw_integral_ab_c1d_c1d_gs            8 10.8     0.08     0.08     0.09     0.10
 build_grid_cache                     1  9.0     0.03     0.04     0.06     0.10
 sort_shells                          5  8.2     0.09     0.10     0.09     0.10
 transfer_pw2rs_40                    4 13.2     0.02     0.02     0.08     0.10
 read_mo_set_from_restart             1  7.0     0.01     0.07     0.09     0.10
 transfer_rs2pw_100                   4 10.0     0.01     0.01     0.08     0.09
 cp_fm_finish_copy_general            4  9.2     0.09     0.09     0.09     0.09
 mp_bcast_iv_src                     26  7.1     0.03     0.09     0.03     0.09
 pw_copy                             60 11.5     0.09     0.09     0.09     0.09
 dbcsr_mm_sched_finalize         114933 13.8     0.07     0.09     0.07     0.09
 compute_v_transl                     1 12.0     0.09     0.09     0.09     0.09
 apply_delta_pulse_MO                 1  3.0     0.00     0.00     0.09     0.09
 propagate_density                    1  4.0     0.00     0.00     0.09     0.09
 bch_propagate                        1  5.0     0.00     0.00     0.09     0.09
 mp_bcast_dm_src                    584  8.0     0.08     0.09     0.08     0.09
 pw_derive                           30 12.3     0.08     0.08     0.08     0.08
 pw_grid_remap                        4  8.0     0.00     0.01     0.08     0.08
 dbcsr_get_global_col_map        114933  8.8     0.06     0.08     0.06     0.08
 mp_bcast_b_src                      13  8.9     0.02     0.08     0.02     0.08
 cp_fm_gemm                           3  9.0     0.08     0.08     0.08     0.08
 mp_sum_im3                           5  9.2     0.07     0.08     0.07     0.08
 build_core_hamiltonian_matrix        1  5.0     0.01     0.02     0.05     0.08
 mp_irecv_dm3                        76 12.2     0.01     0.08     0.01     0.08
 ewald_ddapc_pot                      1  8.0     0.00     0.00     0.04     0.08
 fft_wrap_pw1pw2_100                  8 11.6     0.00     0.00     0.07     0.08
 modify_hartree_pot                   4 11.2     0.07     0.07     0.07     0.07
 mp_bcast_i_src                     109  7.1     0.06     0.07     0.06     0.07
 cp_fm_to_fm_matrix                 164 11.0     0.06     0.07     0.06     0.07
 read_rirs_grid_file                  2 10.0     0.03     0.06     0.03     0.06
 hirshfeld_integration                1  7.0     0.04     0.04     0.06     0.06
 calculate_hirshfeld_normalizat       1  7.0     0.04     0.04     0.06     0.06
 pw_gather_p                         30 12.6     0.06     0.06     0.06     0.06
 dbcsr_mm_hostdrv_init           114933 12.8     0.05     0.06     0.05     0.06
 reserve_blocks_within_radius         1  5.0     0.04     0.05     0.05     0.06
 broyden_mixing                       2  7.0     0.06     0.06     0.06     0.06
 transfer_rs2pw_40                    4 10.0     0.02     0.02     0.05     0.06
 pw_poisson_set                       5  9.4     0.00     0.00     0.05     0.06
 read_gw_input_parameters             1  8.0     0.00     0.00     0.05     0.05
 qs_create_task_list                  1  6.0     0.00     0.01     0.04     0.05
 cp_fm_start_copy_general             4  9.2     0.03     0.03     0.04     0.05
 mp_sendrecv_dv                     248 11.0     0.04     0.05     0.04     0.05
 build_local_moment_matrix            2  4.0     0.04     0.05     0.04     0.05
 get_ddapc                            4 11.2     0.00     0.00     0.04     0.04
 create_product_matrix              334 10.6     0.00     0.01     0.02     0.04
 read_rirs_grid_opt                   1  9.0     0.03     0.04     0.03     0.04
 mp_sum_im                            8  7.5     0.04     0.04     0.04     0.04
 dbcsr_filter_anytype               165 10.2     0.00     0.01     0.04     0.04
 generate_qs_task_list                1  7.0     0.01     0.01     0.03     0.04
 fm_add_on_diag                      60 10.0     0.04     0.04     0.04     0.04
 pw_copy_to_array                    30 12.6     0.03     0.04     0.03     0.04
 build_overlap_matrix_low             1  6.0     0.01     0.02     0.02     0.04
 cfm_ikp_from_fm_Gamma                3  7.3     0.03     0.04     0.03     0.04
 create_fm_W_MIC_time                 1  9.0     0.00     0.00     0.04     0.04
 pw_axpy                             55  7.5     0.03     0.04     0.03     0.04
 get_ddapc-charges                    4 12.2     0.00     0.00     0.03     0.03
 print_matrix_occupation              3  9.0     0.00     0.00     0.02     0.03
 create_tensors                       1  8.0     0.00     0.00     0.03     0.03
 pw_copy_from_array                  34 13.5     0.03     0.03     0.03     0.03
 mp_mem_avail_per_rank_GB             4  9.8     0.00     0.00     0.02     0.03
 distribute_tasks                     1  8.0     0.00     0.00     0.02     0.03
 mp_max_i                           633  1.8     0.02     0.03     0.02     0.03
 create_3c_t                          2  9.0     0.01     0.01     0.03     0.03
 mp_comm_split_type                   4 10.8     0.02     0.03     0.02     0.03
 pw_grid_assign                       5  7.2     0.03     0.03     0.03     0.03
 rs_scatter_matrices                  4  8.0     0.00     0.00     0.02     0.03
 load_balance_distributed             2  9.0     0.00     0.00     0.02     0.03
 build_b_vector                       4 13.2     0.02     0.03     0.02     0.03
 get_current_loads                   12 10.0     0.00     0.00     0.01     0.02
 compute_load_list                    4 10.0     0.00     0.00     0.01     0.02
 allocate_and_fill_fm_ks_fm_s         1  7.0     0.00     0.00     0.02     0.02
 mp_sum_i                           408  9.9     0.02     0.02     0.02     0.02
 mp_comm_split_direct                 8 13.6     0.01     0.02     0.01     0.02
 mulliken_population_analysis         1  7.0     0.00     0.00     0.01     0.02
 mp_alltoall_l                       13 10.9     0.01     0.02     0.01     0.02
 mp_allgather_i                      10 10.4     0.02     0.02     0.02     0.02
 atomic_basis_at_grid_point           1  8.0     0.00     0.00     0.02     0.02
 transfer_pw2rs_20                    4 13.2     0.00     0.01     0.02     0.02
 get_parameters_from_qs_env           1  7.0     0.00     0.00     0.01     0.02
 analyt_conti_and_print               1 10.0     0.01     0.01     0.01     0.02
 pw_zero                             50  5.6     0.02     0.02     0.02     0.02
 check_gw_input                       1  9.0     0.00     0.00     0.01     0.02
 resolve_memory_per_proc              1 10.0     0.00     0.00     0.01     0.02
 write_mo_set_to_restart              3  6.0     0.00     0.00     0.01     0.02
 fft_wrap_pw1pw2_40                   8 11.6     0.00     0.00     0.02     0.02
 check_spline_interp_TabLR            1  3.0     0.00     0.02     0.00     0.02
 connectivity_control                 1  3.0     0.00     0.00     0.01     0.02
 write_mo_set_low                     1  7.0     0.00     0.00     0.01     0.02
 pw_integral_ab_r3d_r3d_rs           40  3.0     0.02     0.02     0.02     0.02
 rs_gather_matrices                   4 11.2     0.00     0.00     0.01     0.02
 fill_phi_for_atom                   10  9.0     0.00     0.00     0.02     0.02
 cp_cfm_norm                          7  5.7     0.01     0.02     0.01     0.02
 mp_maxloc_dv                      1505  1.0     0.02     0.02     0.02     0.02
 transfer_rs2pw_20                    4 10.0     0.00     0.00     0.01     0.01
 create_3c_tensor                     2 10.0     0.00     0.00     0.01     0.01
 lattice_sum_R_to_k                   8 12.0     0.01     0.01     0.01     0.01
 store_Z_lP_columns                  10 10.0     0.01     0.01     0.01     0.01
 rs_grid_zero                        11 12.6     0.01     0.01     0.01     0.01
 classify_z_lp_atoms                  1 10.0     0.00     0.00     0.01     0.01
 dbt_distribution_new_expert         10 11.5     0.00     0.00     0.01     0.01
 topology_generate_bond               1  4.0     0.00     0.00     0.01     0.01
 build_core_ppnl                      1  6.0     0.00     0.01     0.00     0.01
 cp_dbcsr_alloc_block_from_nbl       14  7.1     0.00     0.00     0.01     0.01
 get_fft_scratch                     65 13.9     0.01     0.01     0.01     0.01
 dbt_tas_distribution_new            10 12.5     0.01     0.01     0.01     0.01
 mp_max_d                           211  9.9     0.01     0.01     0.01     0.01
 cp_fm_set_all                       25  5.4     0.01     0.01     0.01     0.01
 build_core_ppl                       1  6.0     0.01     0.01     0.01     0.01
 delete_unnecessary_files             1  9.0     0.00     0.00     0.00     0.01
 safe_delete                         60 10.0     0.00     0.01     0.00     0.01
 mp_comm_size                     17331  4.1     0.01     0.01     0.01     0.01
 topology_generate_bond_3             1  5.0     0.00     0.00     0.00     0.01
 dbcsr_frobenius_norm                 1  5.0     0.01     0.01     0.01     0.01
 self_consistency_check               3  6.0     0.00     0.00     0.00     0.01
 dbt_pgrid_create_expert             13 11.9     0.00     0.00     0.01     0.01
 cp_sm_mix                            3  7.0     0.00     0.00     0.00     0.01
 qs_scf_ensure_work_matrices          1  4.0     0.00     0.00     0.00     0.01
 rs_grid_create_descriptor            4  6.0     0.00     0.00     0.01     0.01
 mp_comm_rank                     17331  4.1     0.01     0.01     0.01     0.01
 mp_bcast_av_src                      1  7.0     0.00     0.01     0.00     0.01
 pw_grid_distribute                   5  7.2     0.00     0.00     0.01     0.01
 build_fist_neighbor_lists            1  6.0     0.00     0.00     0.00     0.01
 ddapc_eval_gfunc                     1  8.0     0.01     0.01     0.01     0.01
 build_kinetic_matrix_low             1  6.0     0.00     0.01     0.00     0.01
 dbt_create_new                       5 11.0     0.00     0.00     0.01     0.01
 external_control                     3  6.0     0.00     0.01     0.01     0.01
 pw_multiply_with                     4 10.2     0.01     0.01     0.01     0.01
 mp_bcast_av                        753  1.0     0.00     0.01     0.00     0.01
 restraint_control                    1  3.0     0.00     0.00     0.00     0.01
 qs_scf_print_scf_summary             1  6.0     0.00     0.01     0.00     0.01
 mp_isendrecv_dv                    248 14.2     0.00     0.01     0.00     0.01
 pw_pool_give_back_pw               137 10.4     0.00     0.01     0.00     0.01
 print_ri_rs_memory_estimate          1  8.0     0.00     0.00     0.01     0.01
 qs_scf_post_charges                  1  5.0     0.00     0.00     0.00     0.01
 evaluate_core_matrix_traces          3  7.0     0.00     0.00     0.00     0.01
 mpools_rebuild_fm_pools              1  4.0     0.00     0.00     0.00     0.01
 calculate_ptrace_kp                  6  8.0     0.00     0.00     0.00     0.01
 dbcsr_dot                            6  9.0     0.00     0.00     0.00     0.01
 calculate_ecore_overlap              1  5.0     0.00     0.00     0.00     0.01
 allocate_matrices                    1  9.0     0.00     0.00     0.00     0.00
 init_interaction_radii               3  7.3     0.00     0.00     0.00     0.00
 fft_wrap_pw1pw2_20                   8 11.6     0.00     0.00     0.00     0.00
 build_neighbor_lists                 1  7.0     0.00     0.00     0.00     0.00
 cp_fm_redistribute_start             7  9.3     0.00     0.00     0.00     0.00
 mp_bcast_dv_src                      2  8.0     0.00     0.00     0.00     0.00
 mp_min_d                             5 10.0     0.00     0.00     0.00     0.00
 pw_poisson_rebuild                   4 10.2     0.00     0.00     0.00     0.00
 populate_C_active                    1  3.0     0.00     0.00     0.00     0.00
 scf_c_read_parameters                1  3.0     0.00     0.00     0.00     0.00
 cp_fm_to_fm_submat_general           1  4.0     0.00     0.00     0.00     0.00
 pw_scale                            13 10.8     0.00     0.00     0.00     0.00
 dbcsr_crop_matrix                   14 11.1     0.00     0.00     0.00     0.00
 write_mo_dependent_results           1  6.0     0.00     0.00     0.00     0.00
 build_qs_neighbor_lists              1  5.0     0.00     0.00     0.00     0.00
 setup_kpoints_DOS_large_cell_G       1  7.0     0.00     0.00     0.00     0.00
 topology_generate_bond_2             1  5.0     0.00     0.00     0.00     0.00
 mp_sum_lv                          142  2.2     0.00     0.00     0.00     0.00
 get_n_ao_in_sphere                 592 10.0     0.00     0.00     0.00     0.00
 pw_pool_create_pw                  131 10.2     0.00     0.00     0.00     0.00
 create_2c_t                          1  9.0     0.00     0.00     0.00     0.00
 write_particle_distances             1  3.0     0.00     0.00     0.00     0.00
 continuation_pade                  105 11.0     0.00     0.00     0.00     0.00
 grid_create_task_list                1  8.0     0.00     0.00     0.00     0.00
 create_2c_tensor                     3 10.0     0.00     0.00     0.00     0.00
 connectivity_control_check_ele       1  4.0     0.00     0.00     0.00     0.00
 dbt_tas_create_split                 6 13.2     0.00     0.00     0.00     0.00
 dbt_tas_create_split_rows_or_c       6 14.2     0.00     0.00     0.00     0.00
 scf_c_create                         1  3.0     0.00     0.00     0.00     0.00
 allocate_blocks_v_kp                 1 12.0     0.00     0.00     0.00     0.00
 cp_fm_to_fm_columns                  3  7.0     0.00     0.00     0.00     0.00
 dbcsr_copy_submatrix                14 12.1     0.00     0.00     0.00     0.00
 get_sigma_c_newton_pade            105 12.0     0.00     0.00     0.00     0.00
 set_blocks_to_matrix_v_kp            1 12.0     0.00     0.00     0.00     0.00
 time_to_freq                         1 10.0     0.00     0.00     0.00     0.00
 grid_free_task_list                  1  2.0     0.00     0.00     0.00     0.00
 dbcsr_copy_into_existing             1  7.0     0.00     0.00     0.00     0.00
 allocate_tmp                         1 11.0     0.00     0.00     0.00     0.00
 allocate_blocks_v_L                  2 12.0     0.00     0.00     0.00     0.00
 compute_max_radius                   1  6.0     0.00     0.00     0.00     0.00
 kpoint_init_cell_index_simple        1  8.0     0.00     0.00     0.00     0.00
 kpoint_init_cell_index               1  9.0     0.00     0.00     0.00     0.00
 optimize_load_list                   2 10.0     0.00     0.00     0.00     0.00
 get_rpa_minimax_coeff_larger_g       1 10.0     0.00     0.00     0.00     0.00
 xc_pw_smooth                         3 11.0     0.00     0.00     0.00     0.00
 create_mat_munu                      1 10.0     0.00     0.00     0.00     0.00
 multi_fft                            1  4.0     0.00     0.00     0.00     0.00
 mp_max_iv                            1 10.0     0.00     0.00     0.00     0.00
 mp_bcast_i3                          2 11.0     0.00     0.00     0.00     0.00
 metadyn_read                         1  2.0     0.00     0.00     0.00     0.00
 dbcsr_make_images_dense              8 11.0     0.00     0.00     0.00     0.00
 init_cube_info                       4  6.0     0.00     0.00     0.00     0.00
 pw_nn_compose_r                     22  3.0     0.00     0.00     0.00     0.00
 dbcsr_make_dense_low                12 12.0     0.00     0.00     0.00     0.00
 dbcsr_index_compact                152 11.4     0.00     0.00     0.00     0.00
 mp_sum_b                           113 11.4     0.00     0.00     0.00     0.00
 init_qs_kind_set                     1  3.0     0.00     0.00     0.00     0.00
 init_qs_kind                         2  4.0     0.00     0.00     0.00     0.00
 init_orb_basis_set                   4  5.0     0.00     0.00     0.00     0.00
 compute_xkp                          3  9.3     0.00     0.00     0.00     0.00
 init_cphi_and_sphi                   4  6.0     0.00     0.00     0.00     0.00
 make_dense_data                     12 13.0     0.00     0.00     0.00     0.00
 read_smeagol_control                 1  3.0     0.00     0.00     0.00     0.00
 distribute_molecules_2d              2  7.5     0.00     0.00     0.00     0.00
 initialize_singleparticle_hami       1  3.0     0.00     0.00     0.00     0.00
 topology_connectivity_pack           1  3.0     0.00     0.00     0.00     0.00
 resp_fit                             1  6.0     0.00     0.00     0.00     0.00
 wfi_create                           1  3.0     0.00     0.00     0.00     0.00
 scf_c_write_parameters               1  3.0     0.00     0.00     0.00     0.00
 mp_bcast_iv                        153  2.9     0.00     0.00     0.00     0.00
 mp_allgather_l                      13 10.9     0.00     0.00     0.00     0.00
 mp_bcast_i                           6 15.2     0.00     0.00     0.00     0.00
 build_neighbor_lists_sac_ppl         1  6.0     0.00     0.00     0.00     0.00
 topology_connectivity_pack_5         1  4.0     0.00     0.00     0.00     0.00
 dbt_tas_create_new                   5 12.0     0.00     0.00     0.00     0.00
 build_neighbor_lists_sap_ppnl        1  6.0     0.00     0.00     0.00     0.00
 build_3c_neighbor_lists              1 10.0     0.00     0.00     0.00     0.00
 create_local_tasks                   1  9.0     0.00     0.00     0.00     0.00
 write_qs_particle_coordinates        1  3.0     0.00     0.00     0.00     0.00
 atom2d_build                         8  9.0     0.00     0.00     0.00     0.00
 build_neighbor_lists_RPA_2c_nl       4  8.2     0.00     0.00     0.00     0.00
 fft3d_s                              1  2.0     0.00     0.00     0.00     0.00
 distribution_3d_create               1 10.0     0.00     0.00     0.00     0.00
 mp_sum_partial_im                    2 11.0     0.00     0.00     0.00     0.00
 mp_rank_compare                     64 14.1     0.00     0.00     0.00     0.00
 scale_rows_by_diag                  20 10.0     0.00     0.00     0.00     0.00
 linres_calculation_low               1  5.0     0.00     0.00     0.00     0.00
 cp_cfm_to_cfm_columns                1  8.0     0.00     0.00     0.00     0.00
 mp_alltoall_l11v                     1 10.0     0.00     0.00     0.00     0.00
 build_neighbor_lists_GW_3c_nl_       1 11.0     0.00     0.00     0.00     0.00
 bs_env_release                       1  2.0     0.00     0.00     0.00     0.00
 distribution_2d_create               2 11.0     0.00     0.00     0.00     0.00
 write_orbpop                         1  8.0     0.00     0.00     0.00     0.00
 pw_create_c1d                       73 11.6     0.00     0.00     0.00     0.00
 print_sphere_cutoff_table            1 10.0     0.00     0.00     0.00     0.00
 mp_comm_dup                         10 11.9     0.00     0.00     0.00     0.00
 print_Z_lP_progress                 11 10.0     0.00     0.00     0.00     0.00
 topology_generate_bond_4             1  5.0     0.00     0.00     0.00     0.00
 de_init_bs_env                       1  8.0     0.00     0.00     0.00     0.00
 deallocate_blocks_v_L                2 12.0     0.00     0.00     0.00     0.00
 build_neighbor_lists_sab_core        1  6.0     0.00     0.00     0.00     0.00
 mp_max_r                             1  2.0     0.00     0.00     0.00     0.00
 load_balance_replicated              1  9.0     0.00     0.00     0.00     0.00
 mixing_allocate                      1  4.0     0.00     0.00     0.00     0.00
 build_neighbor_lists_GW_3c_nl_       1 11.0     0.00     0.00     0.00     0.00
 qs_scf_ensure_mos                    1  4.0     0.00     0.00     0.00     0.00
 pw_create_r3d                       73 10.8     0.00     0.00     0.00     0.00
 rs_grid_create                       6  6.7     0.00     0.00     0.00     0.00
 build_neighbor_lists_sab_all         1  6.0     0.00     0.00     0.00     0.00
 write_qs_kind_set                    1  3.0     0.00     0.00     0.00     0.00
 offload_create_buffer                8  7.8     0.00     0.00     0.00     0.00
 qs_env_rebuild_rho                   1  6.0     0.00     0.00     0.00     0.00
 set_parallelization_parameters       1  9.0     0.00     0.00     0.00     0.00
 qs_rho_rebuild                       1  7.0     0.00     0.00     0.00     0.00
 deallocate_blocks_v_kp               1 12.0     0.00     0.00     0.00     0.00
 build_neighbor_lists_sab_orb_s       1 11.0     0.00     0.00     0.00     0.00
 build_neighbor_lists_sab_orb         1  6.0     0.00     0.00     0.00     0.00
 distribute_molecules_1d              2  7.0     0.00     0.00     0.00     0.00
 correct_obvious_fitting_fails        1 11.0     0.00     0.00     0.00     0.00
 mp_sum_root_iv                       2 11.0     0.00     0.00     0.00     0.00
 dbt_destroy                          5  3.0     0.00     0.00     0.00     0.00
 wfs_update                           1  4.0     0.00     0.00     0.00     0.00
 scf_env_release                      1  2.0     0.00     0.00     0.00     0.00
 mp_cart_get                        107 13.8     0.00     0.00     0.00     0.00
 topology_constraint_pack             1  3.0     0.00     0.00     0.00     0.00
 dbcsr_index_prune_deleted           33 12.2     0.00     0.00     0.00     0.00
 topology_constraint_pack_5           1  4.0     0.00     0.00     0.00     0.00
 topology_coordinate_pack             1  3.0     0.00     0.00     0.00     0.00
 topology_generate_bond_1             1  5.0     0.00     0.00     0.00     0.00
 qs_scf_write_mos                     4  6.2     0.00     0.00     0.00     0.00
 check_generate_mol                   1  6.0     0.00     0.00     0.00     0.00
 write_dft_control                    1  3.0     0.00     0.00     0.00     0.00
 cp_fm_scale                          2  6.5     0.00     0.00     0.00     0.00
 dbt_distribution_destroy            10 11.5     0.00     0.00     0.00     0.00
 mp_min_lv                            4  8.0     0.00     0.00     0.00     0.00
 get_all_VBM_CBM_bandgaps             1 10.0     0.00     0.00     0.00     0.00
 mp_mem_used_per_rank_GB              2  9.5     0.00     0.00     0.00     0.00
 distribution_3d_destroy              1  9.0     0.00     0.00     0.00     0.00
 initialize_density_matrix            1  3.0     0.00     0.00     0.00     0.00
 set_RI_basis_function_indices        1  9.0     0.00     0.00     0.00     0.00
 check_scf_gw_level_ordering          1 11.0     0.00     0.00     0.00     0.00
 print_header_and_input_paramet       1  8.0     0.00     0.00     0.00     0.00
 topology_set_atm_mass                1  4.0     0.00     0.00     0.00     0.00
 write_band_edges                     3  7.0     0.00     0.00     0.00     0.00
 initialize_maximum_timestep          1  3.0     0.00     0.00     0.00     0.00
 mp_bcast_im                          8 10.2     0.00     0.00     0.00     0.00
 get_i_j_atoms                        2 10.0     0.00     0.00     0.00     0.00
 get_basis_offsets                    1  9.0     0.00     0.00     0.00     0.00
 topology_generate_onfo               1  4.0     0.00     0.00     0.00     0.00
 topology_connectivity_pack_14        1  4.0     0.00     0.00     0.00     0.00
 topology_generate_molecule           1  4.0     0.00     0.00     0.00     0.00
 xc_libxc_check_functional            2  4.0     0.00     0.00     0.00     0.00
 mp_max_lv                            4  8.0     0.00     0.00     0.00     0.00
 mp_cart_coords                     128  9.0     0.00     0.00     0.00     0.00
 make_basic_distribution              2  8.5     0.00     0.00     0.00     0.00
 topology_coordinate_pack_11          1  4.0     0.00     0.00     0.00     0.00
 mp_min_i                             4  6.0     0.00     0.00     0.00     0.00
 topology_connectivity_pack_4         1  4.0     0.00     0.00     0.00     0.00
 qs_scf_loop_print                    3  6.0     0.00     0.00     0.00     0.00
 lpt_assign_atoms                     1 10.0     0.00     0.00     0.00     0.00
 qs_scf_initial_info                  1  5.0     0.00     0.00     0.00     0.00
 dbcsr_make_dists_dense               4 10.0     0.00     0.00     0.00     0.00
 topology_connectivity_pack_9         1  4.0     0.00     0.00     0.00     0.00
 setup_AO_and_RI_basis_set            1  8.0     0.00     0.00     0.00     0.00
 scf_env_cleanup                      1  4.0     0.00     0.00     0.00     0.00
 pw_grid_allocate                     5  7.2     0.00     0.00     0.00     0.00
 set_mo_occupation_2                  4  7.0     0.00     0.00     0.00     0.00
 topology_connectivity_pack_13        1  4.0     0.00     0.00     0.00     0.00
 cp_result_value_p_reallocate         4  7.8     0.00     0.00     0.00     0.00
 create_local_fixd_list               1  4.0     0.00     0.00     0.00     0.00
 write_qs_control                     1  3.0     0.00     0.00     0.00     0.00
 create_destination_list              2 10.0     0.00     0.00     0.00     0.00
 topology_connectivity_pack_12        1  4.0     0.00     0.00     0.00     0.00
 topology_coordinate_pack_1           1  4.0     0.00     0.00     0.00     0.00
 reallocate_ft_traces                 1  4.0     0.00     0.00     0.00     0.00
 topology_connectivity_pack_11        1  4.0     0.00     0.00     0.00     0.00
 read_qs_section                      1  3.0     0.00     0.00     0.00     0.00
 resolve_grid_panels                  4  9.2     0.00     0.00     0.00     0.00
 mp_sum_lm3                           1  2.0     0.00     0.00     0.00     0.00
 topology_connectivity_pack_2         1  4.0     0.00     0.00     0.00     0.00
 set_mo_occupation_1                  5  7.6     0.00     0.00     0.00     0.00
 check_cp2k_input                     1  2.0     0.00     0.00     0.00     0.00
 deallocate_tmp                       1 11.0     0.00     0.00     0.00     0.00
 topology_connectivity_pack_10        1  4.0     0.00     0.00     0.00     0.00
 print_gw_rirs_input                  1  9.0     0.00     0.00     0.00     0.00
 write_molecule_kind_set              1  3.0     0.00     0.00     0.00     0.00
 mp_sum_r                             1  2.0     0.00     0.00     0.00     0.00
 spatial_atom_order                   1  9.0     0.00     0.00     0.00     0.00
 topology_generate_bond_6             1  5.0     0.00     0.00     0.00     0.00
 sort_neighbor_lists                  1  7.0     0.00     0.00     0.00     0.00
 topology_connectivity_pack_6         1  4.0     0.00     0.00     0.00     0.00
 dbcsr_verify_matrix                  4  9.0     0.00     0.00     0.00     0.00
 cp_fm_cleanup_copy_general           4  9.2     0.00     0.00     0.00     0.00
 qs_efield_local_operator             4  9.2     0.00     0.00     0.00     0.00
 read_bandstructure_input_param       1  7.0     0.00     0.00     0.00     0.00
 read_tddfpt2_control                 1  3.0     0.00     0.00     0.00     0.00
 kpoint_initialize                    1  2.0     0.00     0.00     0.00     0.00
 topology_molecules_check             1  4.0     0.00     0.00     0.00     0.00
 mp_dims_create                       3 11.0     0.00     0.00     0.00     0.00
 precompute_ri_rs_radii               1  8.0     0.00     0.00     0.00     0.00
 fix_atom_control                     1  3.0     0.00     0.00     0.00     0.00
 dump_info_core_hamiltonian           1  6.0     0.00     0.00     0.00     0.00
 cp_fm_redistribute_end               7  9.3     0.00     0.00     0.00     0.00
 print_header                         1  7.0     0.00     0.00     0.00     0.00
 determine_active_mo_window           1  3.0     0.00     0.00     0.00     0.00
 mp_sum_rv                            1  2.0     0.00     0.00     0.00     0.00
 check_for_derivatives                3 11.0     0.00     0.00     0.00     0.00
 cp_result_value_copy                 6  8.5     0.00     0.00     0.00     0.00
 wfi_extrapolate                      1  6.0     0.00     0.00     0.00     0.00
 balance_global_list                  2 11.0     0.00     0.00     0.00     0.00
 init_scf_loop                        1  5.0     0.00     0.00     0.00     0.00
 mp_min_rv                            1  2.0     0.00     0.00     0.00     0.00
 mp_max_rv                            1  2.0     0.00     0.00     0.00     0.00
 read_topology_section                1  3.0     0.00     0.00     0.00     0.00
 check_diag                           7  8.3     0.00     0.00     0.00     0.00
 qs_efield_berry_phase                4  9.2     0.00     0.00     0.00     0.00
 init_evGW0                           1  9.0     0.00     0.00     0.00     0.00
 offload_free_buffer                  8  3.5     0.00     0.00     0.00     0.00
 write_hcore_matrix_csr               1  7.0     0.00     0.00     0.00     0.00
 get_exp_minimax_coeff_gw             1 10.0     0.00     0.00     0.00     0.00
 fist_neighbor_init                   1  8.0     0.00     0.00     0.00     0.00
 get_VBM_CBM_bandgaps                 3 11.0     0.00     0.00     0.00     0.00
 write_structure_data                 1  3.0     0.00     0.00     0.00     0.00
 setup_kpoints_chi_eps_W              1  9.0     0.00     0.00     0.00     0.00
 set_heuristic_parameters             2  7.5     0.00     0.00     0.00     0.00
 write_ks_matrix_csr                  1  7.0     0.00     0.00     0.00     0.00
 topology_constraint_pack_1           1  4.0     0.00     0.00     0.00     0.00
 atom2d_cleanup                       8  9.0     0.00     0.00     0.00     0.00
 qs_scf_post_ps_implicit              1  7.0     0.00     0.00     0.00     0.00
 scf_env_create                       1  4.0     0.00     0.00     0.00     0.00
 read_rirs_input                      1  9.0     0.00     0.00     0.00     0.00
 qs_ks_did_change                     5  6.0     0.00     0.00     0.00     0.00
 qs_scf_post_elf                      1  5.0     0.00     0.00     0.00     0.00
 read_mgrid_section                   1  3.0     0.00     0.00     0.00     0.00
 mp_sum_dm3                           1  3.0     0.00     0.00     0.00     0.00
 get_factor_and_xyz_min_max           1 12.0     0.00     0.00     0.00     0.00
 cp_ddapc_apply_RF                    4 10.2     0.00     0.00     0.00     0.00
 qs_scf_post_transport                1  7.0     0.00     0.00     0.00     0.00
 topology_generate_molecule_PAR       1  5.0     0.00     0.00     0.00     0.00
 calculate_ecore_self                 1  5.0     0.00     0.00     0.00     0.00
 cp_result_release                    1  2.0     0.00     0.00     0.00     0.00
 qs_scf_post_kubo_transport           1  7.0     0.00     0.00     0.00     0.00
 mp_isend_im2                         8 10.2     0.00     0.00     0.00     0.00
 write_symmetry                       1  3.0     0.00     0.00     0.00     0.00
 init_ec_env                          1  2.0     0.00     0.00     0.00     0.00
 ec_env_release                       1  2.0     0.00     0.00     0.00     0.00
 cp_result_value_release             10  6.3     0.00     0.00     0.00     0.00
 topology_connectivity_pack_1         1  4.0     0.00     0.00     0.00     0.00
 topology_coordinate_pack_3           1  4.0     0.00     0.00     0.00     0.00
 read_binary_coordinates              1  3.0     0.00     0.00     0.00     0.00
 print_atomic_charges                 4 13.2     0.00     0.00     0.00     0.00
 allocate_GW_eigenvalues              1  8.0     0.00     0.00     0.00     0.00
 topology_generate_bond_7             1  5.0     0.00     0.00     0.00     0.00
 topology_connectivity_pack_8         1  4.0     0.00     0.00     0.00     0.00
 grid_create_basis_set                2  8.0     0.00     0.00     0.00     0.00
 topology_coordinate_pack_7a          1  4.0     0.00     0.00     0.00     0.00
 read_evgw0_input                     1  9.0     0.00     0.00     0.00     0.00
 external_c_potential                 1  5.0     0.00     0.00     0.00     0.00
 topology_constraint_pack_6           1  4.0     0.00     0.00     0.00     0.00
 handle_ext_restart                   1  3.0     0.00     0.00     0.00     0.00
 grid_free_basis_set                  2  2.0     0.00     0.00     0.00     0.00
 transport_current                    1  8.0     0.00     0.00     0.00     0.00
 mp_irecv_im2                         8 10.2     0.00     0.00     0.00     0.00
 print_cutoff_radius_input            4 10.0     0.00     0.00     0.00     0.00
 write_gto_basis_sets                 1  3.0     0.00     0.00     0.00     0.00
 topology_connectivity_pack_7         1  4.0     0.00     0.00     0.00     0.00
 topology_coordinate_pack_5           1  4.0     0.00     0.00     0.00     0.00
 topology_connectivity_pack_3         1  4.0     0.00     0.00     0.00     0.00
 qs_scf_post_moments                  1  5.0     0.00     0.00     0.00     0.00
 cp_result_value_create              10  8.6     0.00     0.00     0.00     0.00
 qs_scf_post_xray                     1  5.0     0.00     0.00     0.00     0.00
 qs_scf_post_molopt                   1  5.0     0.00     0.00     0.00     0.00
 allocate_qs_energy                   1  3.0     0.00     0.00     0.00     0.00
 qs_scf_post_efg                      1  5.0     0.00     0.00     0.00     0.00
 plan_grid_panels                     1 10.0     0.00     0.00     0.00     0.00
 qs_scf_post_epr                      1  5.0     0.00     0.00     0.00     0.00
 write_p_matrix_csr                   1  7.0     0.00     0.00     0.00     0.00
 write_dm_binary_restart              1  7.0     0.00     0.00     0.00     0.00
 write_s_matrix_csr                   1  7.0     0.00     0.00     0.00     0.00
 write_adjacency_matrix               1  7.0     0.00     0.00     0.00     0.00
 topology_coordinate_pack_6           1  4.0     0.00     0.00     0.00     0.00
 topology_coordinate_pack_7b          1  4.0     0.00     0.00     0.00     0.00
 topology_coordinate_pack_89          1  4.0     0.00     0.00     0.00     0.00
 qs_scf_post_local_energy             1  7.0     0.00     0.00     0.00     0.00
 cp_result_value_init                 4  7.8     0.00     0.00     0.00     0.00
 rt_bse_ri_rs_ensure_grid             2  5.0     0.00     0.00     0.00     0.00
 qs_scf_post_local_stress             1  7.0     0.00     0.00     0.00     0.00
 topology_muc                         1  4.0     0.00     0.00     0.00     0.00
 calculate_ecore_efield               1  5.0     0.00     0.00     0.00     0.00
 add_external_potential               1  3.0     0.00     0.00     0.00     0.00
 qs_scf_post_et                       1  5.0     0.00     0.00     0.00     0.00
 topology_constraint_pack_7           1  4.0     0.00     0.00     0.00     0.00
 write_mos_molden                     1  7.0     0.00     0.00     0.00     0.00
 fp_env_write                         1  2.0     0.00     0.00     0.00     0.00
 ps_implicit_release                  2  4.0     0.00     0.00     0.00     0.00
 square_mesh                          2 11.0     0.00     0.00     0.00     0.00
 tddfpt2_control_create               2  3.0     0.00     0.00     0.00     0.00
 tddfpt2_control_release              2  2.0     0.00     0.00     0.00     0.00
 topology_generate_bend               1  4.0     0.00     0.00     0.00     0.00
 wfn_mix                              1  5.0     0.00     0.00     0.00     0.00
 topology_connectivity_pack_13_       1  4.0     0.00     0.00     0.00     0.00
 wannier90_interface                  1  5.0     0.00     0.00     0.00     0.00
 topology_connectivity_pack_14_       1  4.0     0.00     0.00     0.00     0.00
 auto_ri_release                      1  3.0     0.00     0.00     0.00     0.00
 fp_env_read                          1  2.0     0.00     0.00     0.00     0.00
 reset_and_clean_bs_env               1  9.0     0.00     0.00     0.00     0.00
 topology_connectivity_pack_11_       1  4.0     0.00     0.00     0.00     0.00
 topology_connectivity_pack_12_       1  4.0     0.00     0.00     0.00     0.00
 read_auto_ri_input                   1  9.0     0.00     0.00     0.00     0.00
 external_e_potential                 1  5.0     0.00     0.00     0.00     0.00
 compute_matrix_w                     1  4.0     0.00     0.00     0.00     0.00
 topology_generate_dihe               1  4.0     0.00     0.00     0.00     0.00
 rescale_forces                       1  3.0     0.00     0.00     0.00     0.00
 external_read_density                1  5.0     0.00     0.00     0.00     0.00
 smeagol_control_create               1  3.0     0.00     0.00     0.00     0.00
 smeagol_control_release              1  2.0     0.00     0.00     0.00     0.00
 topology_coordinate_pack_4           1  4.0     0.00     0.00     0.00     0.00
 topology_constraint_pack_3           1  4.0     0.00     0.00     0.00     0.00
 check_qs_kind_set                    1  3.0     0.00     0.00     0.00     0.00
 topology_constraint_pack_2           1  4.0     0.00     0.00     0.00     0.00
 topology_coordinate_pack_10          1  4.0     0.00     0.00     0.00     0.00
 topology_generate_impr               1  4.0     0.00     0.00     0.00     0.00
 cp_result_create                     1  2.0     0.00     0.00     0.00     0.00
 init_harris_env                      1  3.0     0.00     0.00     0.00     0.00
 pw_env_create                        1  5.0     0.00     0.00     0.00     0.00
 topology_coordinate_pack_2           1  4.0     0.00     0.00     0.00     0.00
 topology_connectivity_pack_1.1       1  4.0     0.00     0.00     0.00     0.00
 topology_generate_ub                 1  4.0     0.00     0.00     0.00     0.00
 topology_constraint_pack_4           1  4.0     0.00     0.00     0.00     0.00
 excited_state_energy                 1  4.0     0.00     0.00     0.00     0.00
 cleanup_scf_loop                     1  6.0     0.00     0.00     0.00     0.00
 -------------------------------------------------------------------------------

 The number of warnings for this run is : 2
 
 -------------------------------------------------------------------------------
  **** **** ******  **  PROGRAM ENDED AT                 2026-09-27 11:22:47.930
 ***** ** ***  *** **   PROGRAM RAN ON                                 n2lcn0141
 **    ****   ******    PROGRAM RAN BY                                  metdyn07
 ***** **    ** ** **   PROGRAM PROCESS ID                               1164804
  **** **  *******  **  PROGRAM STOPPED IN /scratch/hpc-prf-metdyn/metdyn07_Rita
                                           j/otus/max-nanographene/16
