296

H              2.44067137            -2.50689740             0.00000000
H             -2.44067137            -2.50689740             0.00000000
H              0.00000000            -2.19565187            -0.77304449
H              0.00000000            -2.19565187             0.77304449
C             -0.00000000            -1.42260738             0.00000000
C              2.44067137            -1.41364740            -0.00000000
C             -2.44067137            -1.41364740             0.00000000
H             -4.59680947            -1.19894451             0.00000000
H              4.59680947            -1.19894451             0.00000000
C              1.22352318            -0.70942258            -0.00000000
C             -1.22352318            -0.70942258             0.00000000
C              3.63501698            -0.67917712            -0.00000000
C             -3.63501698            -0.67917712             0.00000000
C              3.63501698             0.67917712             0.00000000
C             -3.63501698             0.67917712            -0.00000000
C             -1.22352318             0.70942258            -0.00000000
C              1.22352318             0.70942258             0.00000000
H             -4.59680947             1.19894451            -0.00000000
H              4.59680947             1.19894451            -0.00000000
C              2.44067137             1.41364740             0.00000000
C             -2.44067137             1.41364740            -0.00000000
C              0.00000000             1.42260738             0.00000000
C              0.00000000             2.84145238             0.00000000
C             -2.44067137             2.85041236             0.00000000
C              2.44067137             2.85041236             0.00000000
H              4.59680947             3.06511524             0.00000000
H             -4.59680947             3.06511524             0.00000000
C              1.22352318             3.55463717             0.00000000
C             -1.22352318             3.55463717             0.00000000
C             -3.63501698             3.58488263             0.00000000
C              3.63501698             3.58488263             0.00000000
C              3.63501698             4.94323687             0.00000000
C             -3.63501698             4.94323687             0.00000000
C             -1.22352318             4.97348234             0.00000000
C              1.22352318             4.97348234             0.00000000
H             -4.59680947             5.46300426             0.00000000
H              4.59680947             5.46300426             0.00000000
C              2.44067137             5.67770715             0.00000000
C             -2.44067137             5.67770715             0.00000000
C              0.00000000             5.68666713             0.00000000
C              0.00000000             7.10551213             0.00000000
C             -2.44067137             7.11447211             0.00000000
C              2.44067137             7.11447211             0.00000000
H              4.59680947             7.32917500             0.00000000
H             -4.59680947             7.32917500             0.00000000
C              1.22352318             7.81869693             0.00000000
C             -1.22352318             7.81869693             0.00000000
C             -3.63501698             7.84894239             0.00000000
C              3.63501698             7.84894239             0.00000000
C              3.63501698             9.20729663             0.00000000
C             -3.63501698             9.20729663             0.00000000
C              1.22352318             9.23754209             0.00000000
C             -1.22352318             9.23754209             0.00000000
H              4.59680947             9.72706402             0.00000000
H             -4.59680947             9.72706402             0.00000000
C              2.44067137             9.94176690             0.00000000
C             -2.44067137             9.94176690             0.00000000
C              0.00000000             9.95072688             0.00000000
C              0.00000000            11.36957188             0.00000000
C             -2.44067137            11.37853186             0.00000000
C              2.44067137            11.37853186             0.00000000
H             -4.59680947            11.59323475             0.00000000
H              4.59680947            11.59323475             0.00000000
C              1.22352318            12.08275668             0.00000000
C             -1.22352318            12.08275668             0.00000000
C              3.63501698            12.11300214             0.00000000
C             -3.63501698            12.11300214             0.00000000
C             -3.63501698            13.47135638             0.00000000
C              3.63501698            13.47135638             0.00000000
C             -1.22352318            13.50160184             0.00000000
C              1.22352318            13.50160184             0.00000000
H             -4.59680947            13.99112377             0.00000000
H              4.59680947            13.99112377             0.00000000
C              2.44067137            14.20582666             0.00000000
C             -2.44067137            14.20582666             0.00000000
C              0.00000000            14.21478664             0.00000000
C              0.00000000            15.63363164             0.00000000
C              2.44067137            15.64259162             0.00000000
C             -2.44067137            15.64259162             0.00000000
H             -4.59680947            15.85729451             0.00000000
H              4.59680947            15.85729451             0.00000000
C              1.22352318            16.34681643             0.00000000
C             -1.22352318            16.34681643             0.00000000
C             -3.63501698            16.37706190             0.00000000
C              3.63501698            16.37706190             0.00000000
C              3.63501698            17.73541614             0.00000000
C             -3.63501698            17.73541614             0.00000000
C             -1.22352318            17.76566160             0.00000000
C              1.22352318            17.76566160             0.00000000
H             -4.59680947            18.25518353             0.00000000
H              4.59680947            18.25518353             0.00000000
C             -2.44067137            18.46988641             0.00000000
C              2.44067137            18.46988641             0.00000000
C              0.00000000            18.47884639             0.00000000
C              0.00000000            19.89769139             0.00000000
C             -2.44067137            19.90665137             0.00000000
C              2.44067137            19.90665137             0.00000000
H              4.59680947            20.12135426             0.00000000
H             -4.59680947            20.12135426             0.00000000
C              1.22352318            20.61087619             0.00000000
C             -1.22352318            20.61087619             0.00000000
C             -3.63501698            20.64112165             0.00000000
C              3.63501698            20.64112165             0.00000000
C              3.63501698            21.99947589             0.00000000
C             -3.63501698            21.99947589             0.00000000
C             -1.22352318            22.02972135             0.00000000
C              1.22352318            22.02972135             0.00000000
H             -4.59680947            22.51924328             0.00000000
H              4.59680947            22.51924328             0.00000000
C             -2.44067137            22.73394617             0.00000000
C              2.44067137            22.73394617             0.00000000
C              0.00000000            22.74290615             0.00000000
C              0.00000000            24.16175115             0.00000000
C             -2.44067137            24.17071113             0.00000000
C              2.44067137            24.17071113             0.00000000
H             -4.59680947            24.38541401             0.00000000
H              4.59680947            24.38541401             0.00000000
C             -1.22352318            24.87493594             0.00000000
C              1.22352318            24.87493594             0.00000000
C              3.63501698            24.90518140             0.00000000
C             -3.63501698            24.90518140             0.00000000
C              3.63501698            26.26353564             0.00000000
C             -3.63501698            26.26353564             0.00000000
C              1.22352318            26.29378111             0.00000000
C             -1.22352318            26.29378111             0.00000000
H              4.59680947            26.78330303             0.00000000
H             -4.59680947            26.78330303             0.00000000
C             -2.44067137            26.99800592             0.00000000
C              2.44067137            26.99800592             0.00000000
C              0.00000000            27.00696590             0.00000000
C              0.00000000            28.42581090             0.00000000
C              2.44067137            28.43477088             0.00000000
C             -2.44067137            28.43477088             0.00000000
H             -4.59680947            28.64947377             0.00000000
H              4.59680947            28.64947377             0.00000000
C             -1.22352318            29.13899570             0.00000000
C              1.22352318            29.13899570             0.00000000
C             -3.63501698            29.16924116             0.00000000
C              3.63501698            29.16924116             0.00000000
C              3.63501698            30.52759540             0.00000000
C             -3.63501698            30.52759540             0.00000000
C             -1.22352318            30.55784086             0.00000000
C              1.22352318            30.55784086             0.00000000
H              4.59680947            31.04736279             0.00000000
H             -4.59680947            31.04736279             0.00000000
C              2.44067137            31.26206567             0.00000000
C             -2.44067137            31.26206567             0.00000000
C              0.00000000            31.27102565             0.00000000
C              0.00000000            32.68987065             0.00000000
C              2.44067137            32.69883064             0.00000000
C             -2.44067137            32.69883064             0.00000000
H              4.59680947            32.91353352             0.00000000
H             -4.59680947            32.91353352             0.00000000
C             -1.22352318            33.40305545             0.00000000
C              1.22352318            33.40305545             0.00000000
C              3.63501698            33.43330091             0.00000000
C             -3.63501698            33.43330091             0.00000000
C              3.63501698            34.79165515             0.00000000
C             -3.63501698            34.79165515             0.00000000
C              1.22352318            34.82190061             0.00000000
C             -1.22352318            34.82190061             0.00000000
H             -4.59680947            35.31142254             0.00000000
H              4.59680947            35.31142254             0.00000000
C              2.44067137            35.52612543             0.00000000
C             -2.44067137            35.52612543             0.00000000
C              0.00000000            35.53508541             0.00000000
C              0.00000000            36.95393041             0.00000000
C             -2.44067137            36.96289039             0.00000000
C              2.44067137            36.96289039             0.00000000
H              4.59680947            37.17759328             0.00000000
H             -4.59680947            37.17759328             0.00000000
C              1.22352318            37.66711520             0.00000000
C             -1.22352318            37.66711520             0.00000000
C              3.63501698            37.69736067             0.00000000
C             -3.63501698            37.69736067             0.00000000
C              3.63501698            39.05571491             0.00000000
C             -3.63501698            39.05571491             0.00000000
C             -1.22352318            39.08596037             0.00000000
C              1.22352318            39.08596037             0.00000000
H             -4.59680947            39.57548230             0.00000000
H              4.59680947            39.57548230             0.00000000
C              2.44067137            39.79018518             0.00000000
C             -2.44067137            39.79018518             0.00000000
C              0.00000000            39.79914516             0.00000000
C              0.00000000            41.21799016             0.00000000
C             -2.44067137            41.22695014             0.00000000
C              2.44067137            41.22695014             0.00000000
H              4.59680947            41.44165303             0.00000000
H             -4.59680947            41.44165303             0.00000000
C              1.22352318            41.93117496             0.00000000
C             -1.22352318            41.93117496             0.00000000
C             -3.63501698            41.96142042             0.00000000
C              3.63501698            41.96142042             0.00000000
C              3.63501698            43.31977466             0.00000000
C             -3.63501698            43.31977466             0.00000000
C              1.22352318            43.35002012             0.00000000
C             -1.22352318            43.35002012             0.00000000
H              4.59680947            43.83954205             0.00000000
H             -4.59680947            43.83954205             0.00000000
C             -2.44067137            44.05424494             0.00000000
C              2.44067137            44.05424494             0.00000000
C              0.00000000            44.06320492             0.00000000
C              0.00000000            45.48204992             0.00000000
C              2.44067137            45.49100990             0.00000000
C             -2.44067137            45.49100990             0.00000000
H             -4.59680947            45.70571278             0.00000000
H              4.59680947            45.70571278             0.00000000
C              1.22352318            46.19523471             0.00000000
C             -1.22352318            46.19523471             0.00000000
C              3.63501698            46.22548017             0.00000000
C             -3.63501698            46.22548017             0.00000000
C              3.63501698            47.58383441             0.00000000
C             -3.63501698            47.58383441             0.00000000
C              1.22352318            47.61407988             0.00000000
C             -1.22352318            47.61407988             0.00000000
H             -4.59680947            48.10360180             0.00000000
H              4.59680947            48.10360180             0.00000000
C             -2.44067137            48.31830469             0.00000000
C              2.44067137            48.31830469             0.00000000
C              0.00000000            48.32726467             0.00000000
C              0.00000000            49.74610967             0.00000000
C             -2.44067137            49.75506965             0.00000000
C              2.44067137            49.75506965             0.00000000
H             -4.59680947            49.96977254             0.00000000
H              4.59680947            49.96977254             0.00000000
C             -1.22352318            50.45929447             0.00000000
C              1.22352318            50.45929447             0.00000000
C              3.63501698            50.48953993             0.00000000
C             -3.63501698            50.48953993             0.00000000
C             -3.63501698            51.84789417             0.00000000
C              3.63501698            51.84789417             0.00000000
C              1.22352318            51.87813963             0.00000000
C             -1.22352318            51.87813963             0.00000000
H              4.59680947            52.36766156             0.00000000
H             -4.59680947            52.36766156             0.00000000
C              2.44067137            52.58236444             0.00000000
C             -2.44067137            52.58236444             0.00000000
C              0.00000000            52.59132442             0.00000000
C              0.00000000            54.01016943             0.00000000
C             -2.44067137            54.01912941             0.00000000
C              2.44067137            54.01912941             0.00000000
H              4.59680947            54.23383229             0.00000000
H             -4.59680947            54.23383229             0.00000000
C             -1.22352318            54.72335422             0.00000000
C              1.22352318            54.72335422             0.00000000
C              3.63501698            54.75359968             0.00000000
C             -3.63501698            54.75359968             0.00000000
C              3.63501698            56.11195392             0.00000000
C             -3.63501698            56.11195392             0.00000000
C              1.22352318            56.14219938             0.00000000
C             -1.22352318            56.14219938             0.00000000
H              4.59680947            56.63172131             0.00000000
H             -4.59680947            56.63172131             0.00000000
C              2.44067137            56.84642420             0.00000000
C             -2.44067137            56.84642420             0.00000000
C              0.00000000            56.85538418             0.00000000
C              0.00000000            58.27422918             0.00000000
C              2.44067137            58.28318916             0.00000000
C             -2.44067137            58.28318916             0.00000000
H              4.59680947            58.49789205             0.00000000
H             -4.59680947            58.49789205             0.00000000
C              1.22352318            58.98741397             0.00000000
C             -1.22352318            58.98741397             0.00000000
C              3.63501698            59.01765944             0.00000000
C             -3.63501698            59.01765944             0.00000000
C             -3.63501698            60.37601368             0.00000000
C              3.63501698            60.37601368             0.00000000
C              1.22352318            60.40625914             0.00000000
C             -1.22352318            60.40625914             0.00000000
H              4.59680947            60.89578107             0.00000000
H             -4.59680947            60.89578107             0.00000000
C             -2.44067137            61.11048395             0.00000000
C              2.44067137            61.11048395             0.00000000
C              0.00000000            61.11944393             0.00000000
C              0.00000000            62.53828893             0.00000000
C             -2.44067137            62.54724891             0.00000000
C              2.44067137            62.54724891             0.00000000
H             -4.59680947            62.76195180             0.00000000
H              4.59680947            62.76195180             0.00000000
C              1.22352318            63.25147373             0.00000000
C             -1.22352318            63.25147373             0.00000000
C             -3.63501698            63.28171919             0.00000000
C              3.63501698            63.28171919             0.00000000
C             -3.63501698            64.64007343             0.00000000
C              3.63501698            64.64007343             0.00000000
C             -1.22352318            64.67031889             0.00000000
C              1.22352318            64.67031889             0.00000000
H              4.59680947            65.15984082             0.00000000
H             -4.59680947            65.15984082             0.00000000
C             -2.44067137            65.37454371             0.00000000
C              2.44067137            65.37454371             0.00000000
C              0.00000000            65.38350369             0.00000000
H              0.00000000            66.15654818             0.77304449
H              0.00000000            66.15654818            -0.77304449
H              2.44067137            66.46779371             0.00000000
H             -2.44067137            66.46779371             0.00000000
