2312

H              2.44067137            -2.50689740             0.00000000
H             -2.44067137            -2.50689740             0.00000000
H              0.00000000            -2.19565187             0.77304449
H              0.00000000            -2.19565187            -0.77304449
C             -0.00000000            -1.42260738             0.00000000
C              2.44067137            -1.41364740            -0.00000000
C             -2.44067137            -1.41364740             0.00000000
H             -4.59680947            -1.19894451             0.00000000
H              4.59680947            -1.19894451             0.00000000
C             -1.22352318            -0.70942258             0.00000000
C              1.22352318            -0.70942258            -0.00000000
C             -3.63501698            -0.67917712             0.00000000
C              3.63501698            -0.67917712            -0.00000000
C              3.63501698             0.67917712             0.00000000
C             -3.63501698             0.67917712            -0.00000000
C              1.22352318             0.70942258             0.00000000
C             -1.22352318             0.70942258            -0.00000000
H             -4.59680947             1.19894451            -0.00000000
H              4.59680947             1.19894451            -0.00000000
C             -2.44067137             1.41364740            -0.00000000
C              2.44067137             1.41364740             0.00000000
C              0.00000000             1.42260738             0.00000000
C              0.00000000             2.84145238             0.00000000
C             -2.44067137             2.85041236             0.00000000
C              2.44067137             2.85041236             0.00000000
H             -4.59680947             3.06511524             0.00000000
H              4.59680947             3.06511524             0.00000000
C              1.22352318             3.55463717             0.00000000
C             -1.22352318             3.55463717             0.00000000
C             -3.63501698             3.58488263             0.00000000
C              3.63501698             3.58488263             0.00000000
C              3.63501698             4.94323687             0.00000000
C             -3.63501698             4.94323687             0.00000000
C             -1.22352318             4.97348234             0.00000000
C              1.22352318             4.97348234             0.00000000
H              4.59680947             5.46300426             0.00000000
H             -4.59680947             5.46300426             0.00000000
C             -2.44067137             5.67770715             0.00000000
C              2.44067137             5.67770715             0.00000000
C              0.00000000             5.68666713             0.00000000
C              0.00000000             7.10551213             0.00000000
C             -2.44067137             7.11447211             0.00000000
C              2.44067137             7.11447211             0.00000000
H              4.59680947             7.32917500             0.00000000
H             -4.59680947             7.32917500             0.00000000
C              1.22352318             7.81869693             0.00000000
C             -1.22352318             7.81869693             0.00000000
C             -3.63501698             7.84894239             0.00000000
C              3.63501698             7.84894239             0.00000000
C              3.63501698             9.20729663             0.00000000
C             -3.63501698             9.20729663             0.00000000
C             -1.22352318             9.23754209             0.00000000
C              1.22352318             9.23754209             0.00000000
H             -4.59680947             9.72706402             0.00000000
H              4.59680947             9.72706402             0.00000000
C              2.44067137             9.94176690             0.00000000
C             -2.44067137             9.94176690             0.00000000
C              0.00000000             9.95072688             0.00000000
C              0.00000000            11.36957188             0.00000000
C             -2.44067137            11.37853186             0.00000000
C              2.44067137            11.37853186             0.00000000
H              4.59680947            11.59323475             0.00000000
H             -4.59680947            11.59323475             0.00000000
C             -1.22352318            12.08275668             0.00000000
C              1.22352318            12.08275668             0.00000000
C              3.63501698            12.11300214             0.00000000
C             -3.63501698            12.11300214             0.00000000
C              3.63501698            13.47135638             0.00000000
C             -3.63501698            13.47135638             0.00000000
C             -1.22352318            13.50160184             0.00000000
C              1.22352318            13.50160184             0.00000000
H              4.59680947            13.99112377             0.00000000
H             -4.59680947            13.99112377             0.00000000
C             -2.44067137            14.20582666             0.00000000
C              2.44067137            14.20582666             0.00000000
C              0.00000000            14.21478664             0.00000000
C              0.00000000            15.63363164             0.00000000
C              2.44067137            15.64259162             0.00000000
C             -2.44067137            15.64259162             0.00000000
H              4.59680947            15.85729451             0.00000000
H             -4.59680947            15.85729451             0.00000000
C             -1.22352318            16.34681643             0.00000000
C              1.22352318            16.34681643             0.00000000
C             -3.63501698            16.37706190             0.00000000
C              3.63501698            16.37706190             0.00000000
C             -3.63501698            17.73541614             0.00000000
C              3.63501698            17.73541614             0.00000000
C             -1.22352318            17.76566160             0.00000000
C              1.22352318            17.76566160             0.00000000
H             -4.59680947            18.25518353             0.00000000
H              4.59680947            18.25518353             0.00000000
C             -2.44067137            18.46988641             0.00000000
C              2.44067137            18.46988641             0.00000000
C              0.00000000            18.47884639             0.00000000
C              0.00000000            19.89769139             0.00000000
C              2.44067137            19.90665137             0.00000000
C             -2.44067137            19.90665137             0.00000000
H              4.59680947            20.12135426             0.00000000
H             -4.59680947            20.12135426             0.00000000
C              1.22352318            20.61087619             0.00000000
C             -1.22352318            20.61087619             0.00000000
C              3.63501698            20.64112165             0.00000000
C             -3.63501698            20.64112165             0.00000000
C             -3.63501698            21.99947589             0.00000000
C              3.63501698            21.99947589             0.00000000
C             -1.22352318            22.02972135             0.00000000
C              1.22352318            22.02972135             0.00000000
H             -4.59680947            22.51924328             0.00000000
H              4.59680947            22.51924328             0.00000000
C             -2.44067137            22.73394617             0.00000000
C              2.44067137            22.73394617             0.00000000
C              0.00000000            22.74290615             0.00000000
C              0.00000000            24.16175115             0.00000000
C             -2.44067137            24.17071113             0.00000000
C              2.44067137            24.17071113             0.00000000
H              4.59680947            24.38541401             0.00000000
H             -4.59680947            24.38541401             0.00000000
C              1.22352318            24.87493594             0.00000000
C             -1.22352318            24.87493594             0.00000000
C              3.63501698            24.90518140             0.00000000
C             -3.63501698            24.90518140             0.00000000
C             -3.63501698            26.26353564             0.00000000
C              3.63501698            26.26353564             0.00000000
C              1.22352318            26.29378111             0.00000000
C             -1.22352318            26.29378111             0.00000000
H              4.59680947            26.78330303             0.00000000
H             -4.59680947            26.78330303             0.00000000
C             -2.44067137            26.99800592             0.00000000
C              2.44067137            26.99800592             0.00000000
C              0.00000000            27.00696590             0.00000000
C              0.00000000            28.42581090             0.00000000
C             -2.44067137            28.43477088             0.00000000
C              2.44067137            28.43477088             0.00000000
H              4.59680947            28.64947377             0.00000000
H             -4.59680947            28.64947377             0.00000000
C              1.22352318            29.13899570             0.00000000
C             -1.22352318            29.13899570             0.00000000
C              3.63501698            29.16924116             0.00000000
C             -3.63501698            29.16924116             0.00000000
C              3.63501698            30.52759540             0.00000000
C             -3.63501698            30.52759540             0.00000000
C             -1.22352318            30.55784086             0.00000000
C              1.22352318            30.55784086             0.00000000
H              4.59680947            31.04736279             0.00000000
H             -4.59680947            31.04736279             0.00000000
C             -2.44067137            31.26206567             0.00000000
C              2.44067137            31.26206567             0.00000000
C              0.00000000            31.27102565             0.00000000
C              0.00000000            32.68987065             0.00000000
C              2.44067137            32.69883064             0.00000000
C             -2.44067137            32.69883064             0.00000000
H             -4.59680947            32.91353352             0.00000000
H              4.59680947            32.91353352             0.00000000
C              1.22352318            33.40305545             0.00000000
C             -1.22352318            33.40305545             0.00000000
C              3.63501698            33.43330091             0.00000000
C             -3.63501698            33.43330091             0.00000000
C             -3.63501698            34.79165515             0.00000000
C              3.63501698            34.79165515             0.00000000
C             -1.22352318            34.82190061             0.00000000
C              1.22352318            34.82190061             0.00000000
H              4.59680947            35.31142254             0.00000000
H             -4.59680947            35.31142254             0.00000000
C              2.44067137            35.52612543             0.00000000
C             -2.44067137            35.52612543             0.00000000
C              0.00000000            35.53508541             0.00000000
C              0.00000000            36.95393041             0.00000000
C              2.44067137            36.96289039             0.00000000
C             -2.44067137            36.96289039             0.00000000
H             -4.59680947            37.17759328             0.00000000
H              4.59680947            37.17759328             0.00000000
C             -1.22352318            37.66711520             0.00000000
C              1.22352318            37.66711520             0.00000000
C             -3.63501698            37.69736067             0.00000000
C              3.63501698            37.69736067             0.00000000
C              3.63501698            39.05571491             0.00000000
C             -3.63501698            39.05571491             0.00000000
C             -1.22352318            39.08596037             0.00000000
C              1.22352318            39.08596037             0.00000000
H              4.59680947            39.57548230             0.00000000
H             -4.59680947            39.57548230             0.00000000
C              2.44067137            39.79018518             0.00000000
C             -2.44067137            39.79018518             0.00000000
C              0.00000000            39.79914516             0.00000000
C              0.00000000            41.21799016             0.00000000
C              2.44067137            41.22695014             0.00000000
C             -2.44067137            41.22695014             0.00000000
H             -4.59680947            41.44165303             0.00000000
H              4.59680947            41.44165303             0.00000000
C              1.22352318            41.93117496             0.00000000
C             -1.22352318            41.93117496             0.00000000
C             -3.63501698            41.96142042             0.00000000
C              3.63501698            41.96142042             0.00000000
C             -3.63501698            43.31977466             0.00000000
C              3.63501698            43.31977466             0.00000000
C              1.22352318            43.35002012             0.00000000
C             -1.22352318            43.35002012             0.00000000
H              4.59680947            43.83954205             0.00000000
H             -4.59680947            43.83954205             0.00000000
C              2.44067137            44.05424494             0.00000000
C             -2.44067137            44.05424494             0.00000000
C              0.00000000            44.06320492             0.00000000
C              0.00000000            45.48204992             0.00000000
C             -2.44067137            45.49100990             0.00000000
C              2.44067137            45.49100990             0.00000000
H              4.59680947            45.70571278             0.00000000
H             -4.59680947            45.70571278             0.00000000
C             -1.22352318            46.19523471             0.00000000
C              1.22352318            46.19523471             0.00000000
C             -3.63501698            46.22548017             0.00000000
C              3.63501698            46.22548017             0.00000000
C              3.63501698            47.58383441             0.00000000
C             -3.63501698            47.58383441             0.00000000
C              1.22352318            47.61407988             0.00000000
C             -1.22352318            47.61407988             0.00000000
H              4.59680947            48.10360180             0.00000000
H             -4.59680947            48.10360180             0.00000000
C             -2.44067137            48.31830469             0.00000000
C              2.44067137            48.31830469             0.00000000
C              0.00000000            48.32726467             0.00000000
C              0.00000000            49.74610967             0.00000000
C              2.44067137            49.75506965             0.00000000
C             -2.44067137            49.75506965             0.00000000
H             -4.59680947            49.96977254             0.00000000
H              4.59680947            49.96977254             0.00000000
C             -1.22352318            50.45929447             0.00000000
C              1.22352318            50.45929447             0.00000000
C              3.63501698            50.48953993             0.00000000
C             -3.63501698            50.48953993             0.00000000
C             -3.63501698            51.84789417             0.00000000
C              3.63501698            51.84789417             0.00000000
C              1.22352318            51.87813963             0.00000000
C             -1.22352318            51.87813963             0.00000000
H              4.59680947            52.36766156             0.00000000
H             -4.59680947            52.36766156             0.00000000
C              2.44067137            52.58236444             0.00000000
C             -2.44067137            52.58236444             0.00000000
C              0.00000000            52.59132442             0.00000000
C              0.00000000            54.01016943             0.00000000
C              2.44067137            54.01912941             0.00000000
C             -2.44067137            54.01912941             0.00000000
H              4.59680947            54.23383229             0.00000000
H             -4.59680947            54.23383229             0.00000000
C              1.22352318            54.72335422             0.00000000
C             -1.22352318            54.72335422             0.00000000
C              3.63501698            54.75359968             0.00000000
C             -3.63501698            54.75359968             0.00000000
C             -3.63501698            56.11195392             0.00000000
C              3.63501698            56.11195392             0.00000000
C              1.22352318            56.14219938             0.00000000
C             -1.22352318            56.14219938             0.00000000
H             -4.59680947            56.63172131             0.00000000
H              4.59680947            56.63172131             0.00000000
C              2.44067137            56.84642420             0.00000000
C             -2.44067137            56.84642420             0.00000000
C              0.00000000            56.85538418             0.00000000
C              0.00000000            58.27422918             0.00000000
C              2.44067137            58.28318916             0.00000000
C             -2.44067137            58.28318916             0.00000000
H             -4.59680947            58.49789205             0.00000000
H              4.59680947            58.49789205             0.00000000
C              1.22352318            58.98741397             0.00000000
C             -1.22352318            58.98741397             0.00000000
C              3.63501698            59.01765944             0.00000000
C             -3.63501698            59.01765944             0.00000000
C             -3.63501698            60.37601368             0.00000000
C              3.63501698            60.37601368             0.00000000
C             -1.22352318            60.40625914             0.00000000
C              1.22352318            60.40625914             0.00000000
H             -4.59680947            60.89578107             0.00000000
H              4.59680947            60.89578107             0.00000000
C             -2.44067137            61.11048395             0.00000000
C              2.44067137            61.11048395             0.00000000
C              0.00000000            61.11944393             0.00000000
C              0.00000000            62.53828893             0.00000000
C              2.44067137            62.54724891             0.00000000
C             -2.44067137            62.54724891             0.00000000
H              4.59680947            62.76195180             0.00000000
H             -4.59680947            62.76195180             0.00000000
C              1.22352318            63.25147373             0.00000000
C             -1.22352318            63.25147373             0.00000000
C             -3.63501698            63.28171919             0.00000000
C              3.63501698            63.28171919             0.00000000
C              3.63501698            64.64007343             0.00000000
C             -3.63501698            64.64007343             0.00000000
C              1.22352318            64.67031889             0.00000000
C             -1.22352318            64.67031889             0.00000000
H              4.59680947            65.15984082             0.00000000
H             -4.59680947            65.15984082             0.00000000
C             -2.44067137            65.37454371             0.00000000
C              2.44067137            65.37454371             0.00000000
C              0.00000000            65.38350369             0.00000000
C              0.00000000            66.80234869             0.00000000
C              2.44067137            66.81130867             0.00000000
C             -2.44067137            66.81130867             0.00000000
H             -4.59680947            67.02601155             0.00000000
H              4.59680947            67.02601155             0.00000000
C              1.22352318            67.51553348             0.00000000
C             -1.22352318            67.51553348             0.00000000
C             -3.63501698            67.54577894             0.00000000
C              3.63501698            67.54577894             0.00000000
C              3.63501698            68.90413318             0.00000000
C             -3.63501698            68.90413318             0.00000000
C             -1.22352318            68.93437865             0.00000000
C              1.22352318            68.93437865             0.00000000
H              4.59680947            69.42390057             0.00000000
H             -4.59680947            69.42390057             0.00000000
C              2.44067137            69.63860346             0.00000000
C             -2.44067137            69.63860346             0.00000000
C              0.00000000            69.64756344             0.00000000
C              0.00000000            71.06640844             0.00000000
C             -2.44067137            71.07536842             0.00000000
C              2.44067137            71.07536842             0.00000000
H             -4.59680947            71.29007131             0.00000000
H              4.59680947            71.29007131             0.00000000
C             -1.22352318            71.77959324             0.00000000
C              1.22352318            71.77959324             0.00000000
C             -3.63501698            71.80983870             0.00000000
C              3.63501698            71.80983870             0.00000000
C              3.63501698            73.16819294             0.00000000
C             -3.63501698            73.16819294             0.00000000
C              1.22352318            73.19843840             0.00000000
C             -1.22352318            73.19843840             0.00000000
H             -4.59680947            73.68796033             0.00000000
H              4.59680947            73.68796033             0.00000000
C              2.44067137            73.90266322             0.00000000
C             -2.44067137            73.90266322             0.00000000
C              0.00000000            73.91162320             0.00000000
C              0.00000000            75.33046819             0.00000000
C             -2.44067137            75.33942817             0.00000000
C              2.44067137            75.33942817             0.00000000
H              4.59680947            75.55413106             0.00000000
H             -4.59680947            75.55413106             0.00000000
C             -1.22352318            76.04365299             0.00000000
C              1.22352318            76.04365299             0.00000000
C             -3.63501698            76.07389845             0.00000000
C              3.63501698            76.07389845             0.00000000
C             -3.63501698            77.43225269             0.00000000
C              3.63501698            77.43225269             0.00000000
C             -1.22352318            77.46249815             0.00000000
C              1.22352318            77.46249815             0.00000000
H             -4.59680947            77.95202008             0.00000000
H              4.59680947            77.95202008             0.00000000
C             -2.44067137            78.16672297             0.00000000
C              2.44067137            78.16672297             0.00000000
C              0.00000000            78.17568295             0.00000000
C              0.00000000            79.59452795             0.00000000
C             -2.44067137            79.60348793             0.00000000
C              2.44067137            79.60348793             0.00000000
H              4.59680947            79.81819082             0.00000000
H             -4.59680947            79.81819082             0.00000000
C              1.22352318            80.30771274             0.00000000
C             -1.22352318            80.30771274             0.00000000
C             -3.63501698            80.33795821             0.00000000
C              3.63501698            80.33795821             0.00000000
C              3.63501698            81.69631245             0.00000000
C             -3.63501698            81.69631245             0.00000000
C              1.22352318            81.72655791             0.00000000
C             -1.22352318            81.72655791             0.00000000
H             -4.59680947            82.21607984             0.00000000
H              4.59680947            82.21607984             0.00000000
C              2.44067137            82.43078272             0.00000000
C             -2.44067137            82.43078272             0.00000000
C              0.00000000            82.43974270             0.00000000
C              0.00000000            83.85858770             0.00000000
C              2.44067137            83.86754768             0.00000000
C             -2.44067137            83.86754768             0.00000000
H              4.59680947            84.08225057             0.00000000
H             -4.59680947            84.08225057             0.00000000
C              1.22352318            84.57177250             0.00000000
C             -1.22352318            84.57177250             0.00000000
C             -3.63501698            84.60201796             0.00000000
C              3.63501698            84.60201796             0.00000000
C             -3.63501698            85.96037220             0.00000000
C              3.63501698            85.96037220             0.00000000
C             -1.22352318            85.99061766             0.00000000
C              1.22352318            85.99061766             0.00000000
H              4.59680947            86.48013959             0.00000000
H             -4.59680947            86.48013959             0.00000000
C              2.44067137            86.69484248             0.00000000
C             -2.44067137            86.69484248             0.00000000
C              0.00000000            86.70380246             0.00000000
C              0.00000000            88.12264746             0.00000000
C             -2.44067137            88.13160744             0.00000000
C              2.44067137            88.13160744             0.00000000
H             -4.59680947            88.34631032             0.00000000
H              4.59680947            88.34631032             0.00000000
C              1.22352318            88.83583225             0.00000000
C             -1.22352318            88.83583225             0.00000000
C              3.63501698            88.86607771             0.00000000
C             -3.63501698            88.86607771             0.00000000
C              3.63501698            90.22443195             0.00000000
C             -3.63501698            90.22443195             0.00000000
C              1.22352318            90.25467742             0.00000000
C             -1.22352318            90.25467742             0.00000000
H              4.59680947            90.74419934             0.00000000
H             -4.59680947            90.74419934             0.00000000
C             -2.44067137            90.95890223             0.00000000
C              2.44067137            90.95890223             0.00000000
C              0.00000000            90.96786221             0.00000000
C              0.00000000            92.38670721             0.00000000
C             -2.44067137            92.39566719             0.00000000
C              2.44067137            92.39566719             0.00000000
H              4.59680947            92.61037008             0.00000000
H             -4.59680947            92.61037008             0.00000000
C              1.22352318            93.09989201             0.00000000
C             -1.22352318            93.09989201             0.00000000
C             -3.63501698            93.13013747             0.00000000
C              3.63501698            93.13013747             0.00000000
C             -3.63501698            94.48849171             0.00000000
C              3.63501698            94.48849171             0.00000000
C             -1.22352318            94.51873717             0.00000000
C              1.22352318            94.51873717             0.00000000
H              4.59680947            95.00825910             0.00000000
H             -4.59680947            95.00825910             0.00000000
C              2.44067137            95.22296198             0.00000000
C             -2.44067137            95.22296198             0.00000000
C              0.00000000            95.23192196             0.00000000
C              0.00000000            96.65076696             0.00000000
C              2.44067137            96.65972694             0.00000000
C             -2.44067137            96.65972694             0.00000000
H             -4.59680947            96.87442983             0.00000000
H              4.59680947            96.87442983             0.00000000
C              1.22352318            97.36395176             0.00000000
C             -1.22352318            97.36395176             0.00000000
C              3.63501698            97.39419722             0.00000000
C             -3.63501698            97.39419722             0.00000000
C             -3.63501698            98.75255146             0.00000000
C              3.63501698            98.75255146             0.00000000
C             -1.22352318            98.78279692             0.00000000
C              1.22352318            98.78279692             0.00000000
H             -4.59680947            99.27231885             0.00000000
H              4.59680947            99.27231885             0.00000000
C             -2.44067137            99.48702174             0.00000000
C              2.44067137            99.48702174             0.00000000
C              0.00000000            99.49598172             0.00000000
C              0.00000000           100.91482672             0.00000000
C              2.44067137           100.92378670             0.00000000
C             -2.44067137           100.92378670             0.00000000
H              4.59680947           101.13848959             0.00000000
H             -4.59680947           101.13848959             0.00000000
C              1.22352318           101.62801151             0.00000000
C             -1.22352318           101.62801151             0.00000000
C             -3.63501698           101.65825698             0.00000000
C              3.63501698           101.65825698             0.00000000
C              3.63501698           103.01661122             0.00000000
C             -3.63501698           103.01661122             0.00000000
C              1.22352318           103.04685668             0.00000000
C             -1.22352318           103.04685668             0.00000000
H             -4.59680947           103.53637861             0.00000000
H              4.59680947           103.53637861             0.00000000
C             -2.44067137           103.75108149             0.00000000
C              2.44067137           103.75108149             0.00000000
C              0.00000000           103.76004147             0.00000000
C              0.00000000           105.17888647             0.00000000
C             -2.44067137           105.18784645             0.00000000
C              2.44067137           105.18784645             0.00000000
H              4.59680947           105.40254934             0.00000000
H             -4.59680947           105.40254934             0.00000000
C              1.22352318           105.89207127             0.00000000
C             -1.22352318           105.89207127             0.00000000
C             -3.63501698           105.92231673             0.00000000
C              3.63501698           105.92231673             0.00000000
C              3.63501698           107.28067097             0.00000000
C             -3.63501698           107.28067097             0.00000000
C             -1.22352318           107.31091643             0.00000000
C              1.22352318           107.31091643             0.00000000
H             -4.59680947           107.80043836             0.00000000
H              4.59680947           107.80043836             0.00000000
C             -2.44067137           108.01514125             0.00000000
C              2.44067137           108.01514125             0.00000000
C              0.00000000           108.02410123             0.00000000
C              0.00000000           109.44294623             0.00000000
C              2.44067137           109.45190621             0.00000000
C             -2.44067137           109.45190621             0.00000000
H              4.59680947           109.66660909             0.00000000
H             -4.59680947           109.66660909             0.00000000
C             -1.22352318           110.15613102             0.00000000
C              1.22352318           110.15613102             0.00000000
C              3.63501698           110.18637648             0.00000000
C             -3.63501698           110.18637648             0.00000000
C              3.63501698           111.54473072             0.00000000
C             -3.63501698           111.54473072             0.00000000
C             -1.22352318           111.57497619             0.00000000
C              1.22352318           111.57497619             0.00000000
H             -4.59680947           112.06449811             0.00000000
H              4.59680947           112.06449811             0.00000000
C              2.44067137           112.27920100             0.00000000
C             -2.44067137           112.27920100             0.00000000
C              0.00000000           112.28816098             0.00000000
C              0.00000000           113.70700598             0.00000000
C              2.44067137           113.71596596             0.00000000
C             -2.44067137           113.71596596             0.00000000
H             -4.59680947           113.93066885             0.00000000
H              4.59680947           113.93066885             0.00000000
C              1.22352318           114.42019078             0.00000000
C             -1.22352318           114.42019078             0.00000000
C             -3.63501698           114.45043624             0.00000000
C              3.63501698           114.45043624             0.00000000
C              3.63501698           115.80879048             0.00000000
C             -3.63501698           115.80879048             0.00000000
C             -1.22352318           115.83903594             0.00000000
C              1.22352318           115.83903594             0.00000000
H              4.59680947           116.32855787             0.00000000
H             -4.59680947           116.32855787             0.00000000
C              2.44067137           116.54326076             0.00000000
C             -2.44067137           116.54326076             0.00000000
C              0.00000000           116.55222074             0.00000000
C              0.00000000           117.97106573             0.00000000
C              2.44067137           117.98002571             0.00000000
C             -2.44067137           117.98002571             0.00000000
H              4.59680947           118.19472860             0.00000000
H             -4.59680947           118.19472860             0.00000000
C              1.22352318           118.68425053             0.00000000
C             -1.22352318           118.68425053             0.00000000
C             -3.63501698           118.71449599             0.00000000
C              3.63501698           118.71449599             0.00000000
C              3.63501698           120.07285023             0.00000000
C             -3.63501698           120.07285023             0.00000000
C             -1.22352318           120.10309569             0.00000000
C              1.22352318           120.10309569             0.00000000
H             -4.59680947           120.59261762             0.00000000
H              4.59680947           120.59261762             0.00000000
C              2.44067137           120.80732051             0.00000000
C             -2.44067137           120.80732051             0.00000000
C              0.00000000           120.81628049             0.00000000
C              0.00000000           122.23512549             0.00000000
C             -2.44067137           122.24408547             0.00000000
C              2.44067137           122.24408547             0.00000000
H              4.59680947           122.45878836             0.00000000
H             -4.59680947           122.45878836             0.00000000
C             -1.22352318           122.94831028             0.00000000
C              1.22352318           122.94831028             0.00000000
C             -3.63501698           122.97855575             0.00000000
C              3.63501698           122.97855575             0.00000000
C              3.63501698           124.33690999             0.00000000
C             -3.63501698           124.33690999             0.00000000
C              1.22352318           124.36715545             0.00000000
C             -1.22352318           124.36715545             0.00000000
H             -4.59680947           124.85667738             0.00000000
H              4.59680947           124.85667738             0.00000000
C              2.44067137           125.07138026             0.00000000
C             -2.44067137           125.07138026             0.00000000
C              0.00000000           125.08034024             0.00000000
C              0.00000000           126.49918524             0.00000000
C              2.44067137           126.50814522             0.00000000
C             -2.44067137           126.50814522             0.00000000
H             -4.59680947           126.72284811             0.00000000
H              4.59680947           126.72284811             0.00000000
C              1.22352318           127.21237004             0.00000000
C             -1.22352318           127.21237004             0.00000000
C              3.63501698           127.24261550             0.00000000
C             -3.63501698           127.24261550             0.00000000
C              3.63501698           128.60096974             0.00000000
C             -3.63501698           128.60096974             0.00000000
C              1.22352318           128.63121520             0.00000000
C             -1.22352318           128.63121520             0.00000000
H              4.59680947           129.12073713             0.00000000
H             -4.59680947           129.12073713             0.00000000
C              2.44067137           129.33544002             0.00000000
C             -2.44067137           129.33544002             0.00000000
C              0.00000000           129.34440000             0.00000000
C              0.00000000           130.76324500             0.00000000
C             -2.44067137           130.77220498             0.00000000
C              2.44067137           130.77220498             0.00000000
H              4.59680947           130.98690786             0.00000000
H             -4.59680947           130.98690786             0.00000000
C             -1.22352318           131.47642979             0.00000000
C              1.22352318           131.47642979             0.00000000
C              3.63501698           131.50667525             0.00000000
C             -3.63501698           131.50667525             0.00000000
C             -3.63501698           132.86502949             0.00000000
C              3.63501698           132.86502949             0.00000000
C              1.22352318           132.89527496             0.00000000
C             -1.22352318           132.89527496             0.00000000
H             -4.59680947           133.38479688             0.00000000
H              4.59680947           133.38479688             0.00000000
C              2.44067137           133.59949977             0.00000000
C             -2.44067137           133.59949977             0.00000000
C              0.00000000           133.60845975             0.00000000
C              0.00000000           135.02730475             0.00000000
C              2.44067137           135.03626473             0.00000000
C             -2.44067137           135.03626473             0.00000000
H              4.59680947           135.25096762             0.00000000
H             -4.59680947           135.25096762             0.00000000
C              1.22352318           135.74048955             0.00000000
C             -1.22352318           135.74048955             0.00000000
C             -3.63501698           135.77073501             0.00000000
C              3.63501698           135.77073501             0.00000000
C             -3.63501698           137.12908925             0.00000000
C              3.63501698           137.12908925             0.00000000
C              1.22352318           137.15933471             0.00000000
C             -1.22352318           137.15933471             0.00000000
H              4.59680947           137.64885664             0.00000000
H             -4.59680947           137.64885664             0.00000000
C             -2.44067137           137.86355952             0.00000000
C              2.44067137           137.86355952             0.00000000
C              0.00000000           137.87251950             0.00000000
C              0.00000000           139.29136450             0.00000000
C              2.44067137           139.30032448             0.00000000
C             -2.44067137           139.30032448             0.00000000
H             -4.59680947           139.51502737             0.00000000
H              4.59680947           139.51502737             0.00000000
C             -1.22352318           140.00454930             0.00000000
C              1.22352318           140.00454930             0.00000000
C              3.63501698           140.03479476             0.00000000
C             -3.63501698           140.03479476             0.00000000
C             -3.63501698           141.39314900             0.00000000
C              3.63501698           141.39314900             0.00000000
C              1.22352318           141.42339446             0.00000000
C             -1.22352318           141.42339446             0.00000000
H              4.59680947           141.91291639             0.00000000
H             -4.59680947           141.91291639             0.00000000
C              2.44067137           142.12761928             0.00000000
C             -2.44067137           142.12761928             0.00000000
C              0.00000000           142.13657926             0.00000000
C              0.00000000           143.55542426             0.00000000
C              2.44067137           143.56438424             0.00000000
C             -2.44067137           143.56438424             0.00000000
H              4.59680947           143.77908713             0.00000000
H             -4.59680947           143.77908713             0.00000000
C             -1.22352318           144.26860905             0.00000000
C              1.22352318           144.26860905             0.00000000
C              3.63501698           144.29885452             0.00000000
C             -3.63501698           144.29885452             0.00000000
C              3.63501698           145.65720876             0.00000000
C             -3.63501698           145.65720876             0.00000000
C             -1.22352318           145.68745422             0.00000000
C              1.22352318           145.68745422             0.00000000
H             -4.59680947           146.17697615             0.00000000
H              4.59680947           146.17697615             0.00000000
C              2.44067137           146.39167903             0.00000000
C             -2.44067137           146.39167903             0.00000000
C              0.00000000           146.40063901             0.00000000
C              0.00000000           147.81948401             0.00000000
C             -2.44067137           147.82844399             0.00000000
C              2.44067137           147.82844399             0.00000000
H             -4.59680947           148.04314688             0.00000000
H              4.59680947           148.04314688             0.00000000
C             -1.22352318           148.53266881             0.00000000
C              1.22352318           148.53266881             0.00000000
C             -3.63501698           148.56291427             0.00000000
C              3.63501698           148.56291427             0.00000000
C              3.63501698           149.92126851             0.00000000
C             -3.63501698           149.92126851             0.00000000
C             -1.22352318           149.95151397             0.00000000
C              1.22352318           149.95151397             0.00000000
H              4.59680947           150.44103590             0.00000000
H             -4.59680947           150.44103590             0.00000000
C             -2.44067137           150.65573879             0.00000000
C              2.44067137           150.65573879             0.00000000
C              0.00000000           150.66469877             0.00000000
C              0.00000000           152.08354377             0.00000000
C              2.44067137           152.09250375             0.00000000
C             -2.44067137           152.09250375             0.00000000
H              4.59680947           152.30720663             0.00000000
H             -4.59680947           152.30720663             0.00000000
C             -1.22352318           152.79672856             0.00000000
C              1.22352318           152.79672856             0.00000000
C              3.63501698           152.82697402             0.00000000
C             -3.63501698           152.82697402             0.00000000
C             -3.63501698           154.18532826             0.00000000
C              3.63501698           154.18532826             0.00000000
C             -1.22352318           154.21557373             0.00000000
C              1.22352318           154.21557373             0.00000000
H             -4.59680947           154.70509565             0.00000000
H              4.59680947           154.70509565             0.00000000
C              2.44067137           154.91979854             0.00000000
C             -2.44067137           154.91979854             0.00000000
C              0.00000000           154.92875852             0.00000000
C              0.00000000           156.34760352             0.00000000
C              2.44067137           156.35656350             0.00000000
C             -2.44067137           156.35656350             0.00000000
H             -4.59680947           156.57126639             0.00000000
H              4.59680947           156.57126639             0.00000000
C             -1.22352318           157.06078832             0.00000000
C              1.22352318           157.06078832             0.00000000
C              3.63501698           157.09103378             0.00000000
C             -3.63501698           157.09103378             0.00000000
C             -3.63501698           158.44938802             0.00000000
C              3.63501698           158.44938802             0.00000000
C              1.22352318           158.47963348             0.00000000
C             -1.22352318           158.47963348             0.00000000
H             -4.59680947           158.96915541             0.00000000
H              4.59680947           158.96915541             0.00000000
C              2.44067137           159.18385829             0.00000000
C             -2.44067137           159.18385829             0.00000000
C              0.00000000           159.19281827             0.00000000
C              0.00000000           160.61166328             0.00000000
C             -2.44067137           160.62062325             0.00000000
C              2.44067137           160.62062325             0.00000000
H              4.59680947           160.83532614             0.00000000
H             -4.59680947           160.83532614             0.00000000
C              1.22352318           161.32484807             0.00000000
C             -1.22352318           161.32484807             0.00000000
C             -3.63501698           161.35509353             0.00000000
C              3.63501698           161.35509353             0.00000000
C              3.63501698           162.71344777             0.00000000
C             -3.63501698           162.71344777             0.00000000
C              1.22352318           162.74369323             0.00000000
C             -1.22352318           162.74369323             0.00000000
H              4.59680947           163.23321516             0.00000000
H             -4.59680947           163.23321516             0.00000000
C             -2.44067137           163.44791805             0.00000000
C              2.44067137           163.44791805             0.00000000
C              0.00000000           163.45687803             0.00000000
C              0.00000000           164.87572303             0.00000000
C              2.44067137           164.88468301             0.00000000
C             -2.44067137           164.88468301             0.00000000
H             -4.59680947           165.09938590             0.00000000
H              4.59680947           165.09938590             0.00000000
C             -1.22352318           165.58890782             0.00000000
C              1.22352318           165.58890782             0.00000000
C              3.63501698           165.61915329             0.00000000
C             -3.63501698           165.61915329             0.00000000
C             -3.63501698           166.97750753             0.00000000
C              3.63501698           166.97750753             0.00000000
C              1.22352318           167.00775299             0.00000000
C             -1.22352318           167.00775299             0.00000000
H             -4.59680947           167.49727492             0.00000000
H              4.59680947           167.49727492             0.00000000
C             -2.44067137           167.71197780             0.00000000
C              2.44067137           167.71197780             0.00000000
C              0.00000000           167.72093778             0.00000000
C              0.00000000           169.13978278             0.00000000
C              2.44067137           169.14874276             0.00000000
C             -2.44067137           169.14874276             0.00000000
H              4.59680947           169.36344565             0.00000000
H             -4.59680947           169.36344565             0.00000000
C             -1.22352318           169.85296758             0.00000000
C              1.22352318           169.85296758             0.00000000
C              3.63501698           169.88321304             0.00000000
C             -3.63501698           169.88321304             0.00000000
C              3.63501698           171.24156728             0.00000000
C             -3.63501698           171.24156728             0.00000000
C             -1.22352318           171.27181274             0.00000000
C              1.22352318           171.27181274             0.00000000
H             -4.59680947           171.76133467             0.00000000
H              4.59680947           171.76133467             0.00000000
C              2.44067137           171.97603756             0.00000000
C             -2.44067137           171.97603756             0.00000000
C              0.00000000           171.98499754             0.00000000
C              0.00000000           173.40384254             0.00000000
C             -2.44067137           173.41280252             0.00000000
C              2.44067137           173.41280252             0.00000000
H             -4.59680947           173.62750540             0.00000000
H              4.59680947           173.62750540             0.00000000
C             -1.22352318           174.11702733             0.00000000
C              1.22352318           174.11702733             0.00000000
C              3.63501698           174.14727279             0.00000000
C             -3.63501698           174.14727279             0.00000000
C              3.63501698           175.50562703             0.00000000
C             -3.63501698           175.50562703             0.00000000
C             -1.22352318           175.53587250             0.00000000
C              1.22352318           175.53587250             0.00000000
H             -4.59680947           176.02539442             0.00000000
H              4.59680947           176.02539442             0.00000000
C             -2.44067137           176.24009731             0.00000000
C              2.44067137           176.24009731             0.00000000
C              0.00000000           176.24905729             0.00000000
C              0.00000000           177.66790229             0.00000000
C              2.44067137           177.67686227             0.00000000
C             -2.44067137           177.67686227             0.00000000
H              4.59680947           177.89156516             0.00000000
H             -4.59680947           177.89156516             0.00000000
C             -1.22352318           178.38108709             0.00000000
C              1.22352318           178.38108709             0.00000000
C              3.63501698           178.41133255             0.00000000
C             -3.63501698           178.41133255             0.00000000
C             -3.63501698           179.76968679             0.00000000
C              3.63501698           179.76968679             0.00000000
C             -1.22352318           179.79993225             0.00000000
C              1.22352318           179.79993225             0.00000000
H              4.59680947           180.28945418             0.00000000
H             -4.59680947           180.28945418             0.00000000
C              2.44067137           180.50415706             0.00000000
C             -2.44067137           180.50415706             0.00000000
C              0.00000000           180.51311704             0.00000000
C              0.00000000           181.93196205             0.00000000
C             -2.44067137           181.94092202             0.00000000
C              2.44067137           181.94092202             0.00000000
H             -4.59680947           182.15562491             0.00000000
H              4.59680947           182.15562491             0.00000000
C              1.22352318           182.64514684             0.00000000
C             -1.22352318           182.64514684             0.00000000
C             -3.63501698           182.67539230             0.00000000
C              3.63501698           182.67539230             0.00000000
C              3.63501698           184.03374654             0.00000000
C             -3.63501698           184.03374654             0.00000000
C             -1.22352318           184.06399200             0.00000000
C              1.22352318           184.06399200             0.00000000
H             -4.59680947           184.55351393             0.00000000
H              4.59680947           184.55351393             0.00000000
C             -2.44067137           184.76821682             0.00000000
C              2.44067137           184.76821682             0.00000000
C              0.00000000           184.77717680             0.00000000
C              0.00000000           186.19602180             0.00000000
C             -2.44067137           186.20498178             0.00000000
C              2.44067137           186.20498178             0.00000000
H              4.59680947           186.41968467             0.00000000
H             -4.59680947           186.41968467             0.00000000
C              1.22352318           186.90920659             0.00000000
C             -1.22352318           186.90920659             0.00000000
C              3.63501698           186.93945206             0.00000000
C             -3.63501698           186.93945206             0.00000000
C              3.63501698           188.29780630             0.00000000
C             -3.63501698           188.29780630             0.00000000
C              1.22352318           188.32805176             0.00000000
C             -1.22352318           188.32805176             0.00000000
H              4.59680947           188.81757369             0.00000000
H             -4.59680947           188.81757369             0.00000000
C             -2.44067137           189.03227657             0.00000000
C              2.44067137           189.03227657             0.00000000
C              0.00000000           189.04123655             0.00000000
C              0.00000000           190.46008155             0.00000000
C              2.44067137           190.46904153             0.00000000
C             -2.44067137           190.46904153             0.00000000
H              4.59680947           190.68374442             0.00000000
H             -4.59680947           190.68374442             0.00000000
C              1.22352318           191.17326635             0.00000000
C             -1.22352318           191.17326635             0.00000000
C             -3.63501698           191.20351181             0.00000000
C              3.63501698           191.20351181             0.00000000
C             -3.63501698           192.56186605             0.00000000
C              3.63501698           192.56186605             0.00000000
C              1.22352318           192.59211151             0.00000000
C             -1.22352318           192.59211151             0.00000000
H             -4.59680947           193.08163344             0.00000000
H              4.59680947           193.08163344             0.00000000
C             -2.44067137           193.29633633             0.00000000
C              2.44067137           193.29633633             0.00000000
C              0.00000000           193.30529631             0.00000000
C              0.00000000           194.72414131             0.00000000
C             -2.44067137           194.73310129             0.00000000
C              2.44067137           194.73310129             0.00000000
H             -4.59680947           194.94780417             0.00000000
H              4.59680947           194.94780417             0.00000000
C              1.22352318           195.43732610             0.00000000
C             -1.22352318           195.43732610             0.00000000
C              3.63501698           195.46757156             0.00000000
C             -3.63501698           195.46757156             0.00000000
C              3.63501698           196.82592580             0.00000000
C             -3.63501698           196.82592580             0.00000000
C             -1.22352318           196.85617127             0.00000000
C              1.22352318           196.85617127             0.00000000
H             -4.59680947           197.34569319             0.00000000
H              4.59680947           197.34569319             0.00000000
C              2.44067137           197.56039608             0.00000000
C             -2.44067137           197.56039608             0.00000000
C              0.00000000           197.56935606             0.00000000
C              0.00000000           198.98820106             0.00000000
C             -2.44067137           198.99716104             0.00000000
C              2.44067137           198.99716104             0.00000000
H             -4.59680947           199.21186393             0.00000000
H              4.59680947           199.21186393             0.00000000
C              1.22352318           199.70138586             0.00000000
C             -1.22352318           199.70138586             0.00000000
C             -3.63501698           199.73163132             0.00000000
C              3.63501698           199.73163132             0.00000000
C              3.63501698           201.08998556             0.00000000
C             -3.63501698           201.08998556             0.00000000
C             -1.22352318           201.12023102             0.00000000
C              1.22352318           201.12023102             0.00000000
H             -4.59680947           201.60975295             0.00000000
H              4.59680947           201.60975295             0.00000000
C              2.44067137           201.82445584             0.00000000
C             -2.44067137           201.82445584             0.00000000
C              0.00000000           201.83341581             0.00000000
C              0.00000000           203.25226081             0.00000000
C             -2.44067137           203.26122079             0.00000000
C              2.44067137           203.26122079             0.00000000
H             -4.59680947           203.47592368             0.00000000
H              4.59680947           203.47592368             0.00000000
C             -1.22352318           203.96544561             0.00000000
C              1.22352318           203.96544561             0.00000000
C              3.63501698           203.99569107             0.00000000
C             -3.63501698           203.99569107             0.00000000
C             -3.63501698           205.35404531             0.00000000
C              3.63501698           205.35404531             0.00000000
C             -1.22352318           205.38429077             0.00000000
C              1.22352318           205.38429077             0.00000000
H             -4.59680947           205.87381270             0.00000000
H              4.59680947           205.87381270             0.00000000
C             -2.44067137           206.08851559             0.00000000
C              2.44067137           206.08851559             0.00000000
C              0.00000000           206.09747557             0.00000000
C              0.00000000           207.51632057             0.00000000
C              2.44067137           207.52528055             0.00000000
C             -2.44067137           207.52528055             0.00000000
H              4.59680947           207.73998344             0.00000000
H             -4.59680947           207.73998344             0.00000000
C             -1.22352318           208.22950536             0.00000000
C              1.22352318           208.22950536             0.00000000
C             -3.63501698           208.25975083             0.00000000
C              3.63501698           208.25975083             0.00000000
C             -3.63501698           209.61810507             0.00000000
C              3.63501698           209.61810507             0.00000000
C              1.22352318           209.64835053             0.00000000
C             -1.22352318           209.64835053             0.00000000
H              4.59680947           210.13787246             0.00000000
H             -4.59680947           210.13787246             0.00000000
C             -2.44067137           210.35257534             0.00000000
C              2.44067137           210.35257534             0.00000000
C              0.00000000           210.36153532             0.00000000
C              0.00000000           211.78038032             0.00000000
C              2.44067137           211.78934030             0.00000000
C             -2.44067137           211.78934030             0.00000000
H             -4.59680947           212.00404319             0.00000000
H              4.59680947           212.00404319             0.00000000
C              1.22352318           212.49356512             0.00000000
C             -1.22352318           212.49356512             0.00000000
C             -3.63501698           212.52381058             0.00000000
C              3.63501698           212.52381058             0.00000000
C              3.63501698           213.88216482             0.00000000
C             -3.63501698           213.88216482             0.00000000
C              1.22352318           213.91241028             0.00000000
C             -1.22352318           213.91241028             0.00000000
H              4.59680947           214.40193221             0.00000000
H             -4.59680947           214.40193221             0.00000000
C             -2.44067137           214.61663510             0.00000000
C              2.44067137           214.61663510             0.00000000
C              0.00000000           214.62559508             0.00000000
C              0.00000000           216.04444008             0.00000000
C             -2.44067137           216.05340006             0.00000000
C              2.44067137           216.05340006             0.00000000
H             -4.59680947           216.26810294             0.00000000
H              4.59680947           216.26810294             0.00000000
C              1.22352318           216.75762487             0.00000000
C             -1.22352318           216.75762487             0.00000000
C             -3.63501698           216.78787033             0.00000000
C              3.63501698           216.78787033             0.00000000
C              3.63501698           218.14622457             0.00000000
C             -3.63501698           218.14622457             0.00000000
C              1.22352318           218.17647004             0.00000000
C             -1.22352318           218.17647004             0.00000000
H              4.59680947           218.66599196             0.00000000
H             -4.59680947           218.66599196             0.00000000
C             -2.44067137           218.88069485             0.00000000
C              2.44067137           218.88069485             0.00000000
C              0.00000000           218.88965483             0.00000000
C              0.00000000           220.30849983             0.00000000
C              2.44067137           220.31745981             0.00000000
C             -2.44067137           220.31745981             0.00000000
H              4.59680947           220.53216270             0.00000000
H             -4.59680947           220.53216270             0.00000000
C             -1.22352318           221.02168463             0.00000000
C              1.22352318           221.02168463             0.00000000
C             -3.63501698           221.05193009             0.00000000
C              3.63501698           221.05193009             0.00000000
C              3.63501698           222.41028433             0.00000000
C             -3.63501698           222.41028433             0.00000000
C             -1.22352318           222.44052979             0.00000000
C              1.22352318           222.44052979             0.00000000
H             -4.59680947           222.93005172             0.00000000
H              4.59680947           222.93005172             0.00000000
C             -2.44067137           223.14475461             0.00000000
C              2.44067137           223.14475461             0.00000000
C              0.00000000           223.15371458             0.00000000
C              0.00000000           224.57255958             0.00000000
C             -2.44067137           224.58151956             0.00000000
C              2.44067137           224.58151956             0.00000000
H             -4.59680947           224.79622245             0.00000000
H              4.59680947           224.79622245             0.00000000
C             -1.22352318           225.28574438             0.00000000
C              1.22352318           225.28574438             0.00000000
C             -3.63501698           225.31598984             0.00000000
C              3.63501698           225.31598984             0.00000000
C             -3.63501698           226.67434408             0.00000000
C              3.63501698           226.67434408             0.00000000
C             -1.22352318           226.70458954             0.00000000
C              1.22352318           226.70458954             0.00000000
H              4.59680947           227.19411147             0.00000000
H             -4.59680947           227.19411147             0.00000000
C              2.44067137           227.40881436             0.00000000
C             -2.44067137           227.40881436             0.00000000
C              0.00000000           227.41777434             0.00000000
C              0.00000000           228.83661934             0.00000000
C             -2.44067137           228.84557932             0.00000000
C              2.44067137           228.84557932             0.00000000
H             -4.59680947           229.06028221             0.00000000
H              4.59680947           229.06028221             0.00000000
C              1.22352318           229.54980413             0.00000000
C             -1.22352318           229.54980413             0.00000000
C             -3.63501698           229.58004960             0.00000000
C              3.63501698           229.58004960             0.00000000
C             -3.63501698           230.93840384             0.00000000
C              3.63501698           230.93840384             0.00000000
C             -1.22352318           230.96864930             0.00000000
C              1.22352318           230.96864930             0.00000000
H             -4.59680947           231.45817123             0.00000000
H              4.59680947           231.45817123             0.00000000
C              2.44067137           231.67287411             0.00000000
C             -2.44067137           231.67287411             0.00000000
C              0.00000000           231.68183409             0.00000000
C              0.00000000           233.10067909             0.00000000
C              2.44067137           233.10963907             0.00000000
C             -2.44067137           233.10963907             0.00000000
H              4.59680947           233.32434196             0.00000000
H             -4.59680947           233.32434196             0.00000000
C              1.22352318           233.81386389             0.00000000
C             -1.22352318           233.81386389             0.00000000
C             -3.63501698           233.84410935             0.00000000
C              3.63501698           233.84410935             0.00000000
C              3.63501698           235.20246359             0.00000000
C             -3.63501698           235.20246359             0.00000000
C              1.22352318           235.23270905             0.00000000
C             -1.22352318           235.23270905             0.00000000
H              4.59680947           235.72223098             0.00000000
H             -4.59680947           235.72223098             0.00000000
C             -2.44067137           235.93693387             0.00000000
C              2.44067137           235.93693387             0.00000000
C              0.00000000           235.94589385             0.00000000
C              0.00000000           237.36473885             0.00000000
C             -2.44067137           237.37369883             0.00000000
C              2.44067137           237.37369883             0.00000000
H              4.59680947           237.58840171             0.00000000
H             -4.59680947           237.58840171             0.00000000
C              1.22352318           238.07792364             0.00000000
C             -1.22352318           238.07792364             0.00000000
C              3.63501698           238.10816910             0.00000000
C             -3.63501698           238.10816910             0.00000000
C             -3.63501698           239.46652334             0.00000000
C              3.63501698           239.46652334             0.00000000
C              1.22352318           239.49676881             0.00000000
C             -1.22352318           239.49676881             0.00000000
H              4.59680947           239.98629073             0.00000000
H             -4.59680947           239.98629073             0.00000000
C             -2.44067137           240.20099362             0.00000000
C              2.44067137           240.20099362             0.00000000
C              0.00000000           240.20995360             0.00000000
C              0.00000000           241.62879860             0.00000000
C             -2.44067137           241.63775858             0.00000000
C              2.44067137           241.63775858             0.00000000
H             -4.59680947           241.85246147             0.00000000
H              4.59680947           241.85246147             0.00000000
C             -1.22352318           242.34198340             0.00000000
C              1.22352318           242.34198340             0.00000000
C             -3.63501698           242.37222886             0.00000000
C              3.63501698           242.37222886             0.00000000
C             -3.63501698           243.73058310             0.00000000
C              3.63501698           243.73058310             0.00000000
C              1.22352318           243.76082856             0.00000000
C             -1.22352318           243.76082856             0.00000000
H             -4.59680947           244.25035049             0.00000000
H              4.59680947           244.25035049             0.00000000
C              2.44067137           244.46505337             0.00000000
C             -2.44067137           244.46505337             0.00000000
C              0.00000000           244.47401335             0.00000000
C              0.00000000           245.89285835             0.00000000
C             -2.44067137           245.90181833             0.00000000
C              2.44067137           245.90181833             0.00000000
H             -4.59680947           246.11652122             0.00000000
H              4.59680947           246.11652122             0.00000000
C              1.22352318           246.60604315             0.00000000
C             -1.22352318           246.60604315             0.00000000
C              3.63501698           246.63628861             0.00000000
C             -3.63501698           246.63628861             0.00000000
C             -3.63501698           247.99464285             0.00000000
C              3.63501698           247.99464285             0.00000000
C              1.22352318           248.02488831             0.00000000
C             -1.22352318           248.02488831             0.00000000
H              4.59680947           248.51441024             0.00000000
H             -4.59680947           248.51441024             0.00000000
C              2.44067137           248.72911313             0.00000000
C             -2.44067137           248.72911313             0.00000000
C              0.00000000           248.73807311             0.00000000
C              0.00000000           250.15691811             0.00000000
C              2.44067137           250.16587809             0.00000000
C             -2.44067137           250.16587809             0.00000000
H              4.59680947           250.38058098             0.00000000
H             -4.59680947           250.38058098             0.00000000
C              1.22352318           250.87010290             0.00000000
C             -1.22352318           250.87010290             0.00000000
C             -3.63501698           250.90034837             0.00000000
C              3.63501698           250.90034837             0.00000000
C              3.63501698           252.25870261             0.00000000
C             -3.63501698           252.25870261             0.00000000
C             -1.22352318           252.28894807             0.00000000
C              1.22352318           252.28894807             0.00000000
H              4.59680947           252.77847000             0.00000000
H             -4.59680947           252.77847000             0.00000000
C              2.44067137           252.99317288             0.00000000
C             -2.44067137           252.99317288             0.00000000
C              0.00000000           253.00213286             0.00000000
C              0.00000000           254.42097786             0.00000000
C              2.44067137           254.42993784             0.00000000
C             -2.44067137           254.42993784             0.00000000
H              4.59680947           254.64464073             0.00000000
H             -4.59680947           254.64464073             0.00000000
C             -1.22352318           255.13416266             0.00000000
C              1.22352318           255.13416266             0.00000000
C              3.63501698           255.16440812             0.00000000
C             -3.63501698           255.16440812             0.00000000
C              3.63501698           256.52276236             0.00000000
C             -3.63501698           256.52276236             0.00000000
C             -1.22352318           256.55300782             0.00000000
C              1.22352318           256.55300782             0.00000000
H              4.59680947           257.04252975             0.00000000
H             -4.59680947           257.04252975             0.00000000
C              2.44067137           257.25723264             0.00000000
C             -2.44067137           257.25723264             0.00000000
C              0.00000000           257.26619262             0.00000000
C              0.00000000           258.68503762             0.00000000
C             -2.44067137           258.69399760             0.00000000
C              2.44067137           258.69399760             0.00000000
H              4.59680947           258.90870048             0.00000000
H             -4.59680947           258.90870048             0.00000000
C             -1.22352318           259.39822241             0.00000000
C              1.22352318           259.39822241             0.00000000
C              3.63501698           259.42846787             0.00000000
C             -3.63501698           259.42846787             0.00000000
C              3.63501698           260.78682211             0.00000000
C             -3.63501698           260.78682211             0.00000000
C             -1.22352318           260.81706758             0.00000000
C              1.22352318           260.81706758             0.00000000
H              4.59680947           261.30658950             0.00000000
H             -4.59680947           261.30658950             0.00000000
C              2.44067137           261.52129239             0.00000000
C             -2.44067137           261.52129239             0.00000000
C              0.00000000           261.53025237             0.00000000
C              0.00000000           262.94909737             0.00000000
C              2.44067137           262.95805735             0.00000000
C             -2.44067137           262.95805735             0.00000000
H              4.59680947           263.17276024             0.00000000
H             -4.59680947           263.17276024             0.00000000
C              1.22352318           263.66228217             0.00000000
C             -1.22352318           263.66228217             0.00000000
C              3.63501698           263.69252763             0.00000000
C             -3.63501698           263.69252763             0.00000000
C             -3.63501698           265.05088187             0.00000000
C              3.63501698           265.05088187             0.00000000
C              1.22352318           265.08112733             0.00000000
C             -1.22352318           265.08112733             0.00000000
H              4.59680947           265.57064926             0.00000000
H             -4.59680947           265.57064926             0.00000000
C             -2.44067137           265.78535214             0.00000000
C              2.44067137           265.78535214             0.00000000
C              0.00000000           265.79431213             0.00000000
C              0.00000000           267.21315712             0.00000000
C             -2.44067137           267.22211710             0.00000000
C              2.44067137           267.22211710             0.00000000
H             -4.59680947           267.43681999             0.00000000
H              4.59680947           267.43681999             0.00000000
C              1.22352318           267.92634192             0.00000000
C             -1.22352318           267.92634192             0.00000000
C              3.63501698           267.95658738             0.00000000
C             -3.63501698           267.95658738             0.00000000
C             -3.63501698           269.31494162             0.00000000
C              3.63501698           269.31494162             0.00000000
C              1.22352318           269.34518708             0.00000000
C             -1.22352318           269.34518708             0.00000000
H              4.59680947           269.83470901             0.00000000
H             -4.59680947           269.83470901             0.00000000
C              2.44067137           270.04941190             0.00000000
C             -2.44067137           270.04941190             0.00000000
C              0.00000000           270.05837188             0.00000000
C              0.00000000           271.47721688             0.00000000
C             -2.44067137           271.48617686             0.00000000
C              2.44067137           271.48617686             0.00000000
H              4.59680947           271.70087975             0.00000000
H             -4.59680947           271.70087975             0.00000000
C              1.22352318           272.19040167             0.00000000
C             -1.22352318           272.19040167             0.00000000
C             -3.63501698           272.22064714             0.00000000
C              3.63501698           272.22064714             0.00000000
C             -3.63501698           273.57900138             0.00000000
C              3.63501698           273.57900138             0.00000000
C             -1.22352318           273.60924684             0.00000000
C              1.22352318           273.60924684             0.00000000
H              4.59680947           274.09876877             0.00000000
H             -4.59680947           274.09876877             0.00000000
C              2.44067137           274.31347165             0.00000000
C             -2.44067137           274.31347165             0.00000000
C              0.00000000           274.32243163             0.00000000
C              0.00000000           275.74127663             0.00000000
C             -2.44067137           275.75023661             0.00000000
C              2.44067137           275.75023661             0.00000000
H             -4.59680947           275.96493950             0.00000000
H              4.59680947           275.96493950             0.00000000
C              1.22352318           276.45446143             0.00000000
C             -1.22352318           276.45446143             0.00000000
C              3.63501698           276.48470689             0.00000000
C             -3.63501698           276.48470689             0.00000000
C             -3.63501698           277.84306113             0.00000000
C              3.63501698           277.84306113             0.00000000
C              1.22352318           277.87330659             0.00000000
C             -1.22352318           277.87330659             0.00000000
H             -4.59680947           278.36282852             0.00000000
H              4.59680947           278.36282852             0.00000000
C              2.44067137           278.57753141             0.00000000
C             -2.44067137           278.57753141             0.00000000
C              0.00000000           278.58649139             0.00000000
C              0.00000000           280.00533639             0.00000000
C              2.44067137           280.01429637             0.00000000
C             -2.44067137           280.01429637             0.00000000
H             -4.59680947           280.22899925             0.00000000
H              4.59680947           280.22899925             0.00000000
C              1.22352318           280.71852118             0.00000000
C             -1.22352318           280.71852118             0.00000000
C              3.63501698           280.74876664             0.00000000
C             -3.63501698           280.74876664             0.00000000
C             -3.63501698           282.10712088             0.00000000
C              3.63501698           282.10712088             0.00000000
C              1.22352318           282.13736635             0.00000000
C             -1.22352318           282.13736635             0.00000000
H             -4.59680947           282.62688827             0.00000000
H              4.59680947           282.62688827             0.00000000
C             -2.44067137           282.84159116             0.00000000
C              2.44067137           282.84159116             0.00000000
C              0.00000000           282.85055114             0.00000000
C              0.00000000           284.26939614             0.00000000
C             -2.44067137           284.27835612             0.00000000
C              2.44067137           284.27835612             0.00000000
H              4.59680947           284.49305901             0.00000000
H             -4.59680947           284.49305901             0.00000000
C              1.22352318           284.98258094             0.00000000
C             -1.22352318           284.98258094             0.00000000
C              3.63501698           285.01282640             0.00000000
C             -3.63501698           285.01282640             0.00000000
C              3.63501698           286.37118064             0.00000000
C             -3.63501698           286.37118064             0.00000000
C              1.22352318           286.40142610             0.00000000
C             -1.22352318           286.40142610             0.00000000
H              4.59680947           286.89094803             0.00000000
H             -4.59680947           286.89094803             0.00000000
C              2.44067137           287.10565091             0.00000000
C             -2.44067137           287.10565091             0.00000000
C              0.00000000           287.11461089             0.00000000
C              0.00000000           288.53345589             0.00000000
C              2.44067137           288.54241588             0.00000000
C             -2.44067137           288.54241588             0.00000000
H             -4.59680947           288.75711876             0.00000000
H              4.59680947           288.75711876             0.00000000
C             -1.22352318           289.24664069             0.00000000
C              1.22352318           289.24664069             0.00000000
C             -3.63501698           289.27688615             0.00000000
C              3.63501698           289.27688615             0.00000000
C              3.63501698           290.63524039             0.00000000
C             -3.63501698           290.63524039             0.00000000
C              1.22352318           290.66548585             0.00000000
C             -1.22352318           290.66548585             0.00000000
H              4.59680947           291.15500778             0.00000000
H             -4.59680947           291.15500778             0.00000000
C              2.44067137           291.36971067             0.00000000
C             -2.44067137           291.36971067             0.00000000
C              0.00000000           291.37867065             0.00000000
C              0.00000000           292.79751565             0.00000000
C              2.44067137           292.80647563             0.00000000
C             -2.44067137           292.80647563             0.00000000
H              4.59680947           293.02117852             0.00000000
H             -4.59680947           293.02117852             0.00000000
C              1.22352318           293.51070044             0.00000000
C             -1.22352318           293.51070044             0.00000000
C              3.63501698           293.54094591             0.00000000
C             -3.63501698           293.54094591             0.00000000
C             -3.63501698           294.89930015             0.00000000
C              3.63501698           294.89930015             0.00000000
C              1.22352318           294.92954561             0.00000000
C             -1.22352318           294.92954561             0.00000000
H             -4.59680947           295.41906754             0.00000000
H              4.59680947           295.41906754             0.00000000
C             -2.44067137           295.63377042             0.00000000
C              2.44067137           295.63377042             0.00000000
C              0.00000000           295.64273040             0.00000000
C              0.00000000           297.06157540             0.00000000
C              2.44067137           297.07053538             0.00000000
C             -2.44067137           297.07053538             0.00000000
H             -4.59680947           297.28523827             0.00000000
H              4.59680947           297.28523827             0.00000000
C             -1.22352318           297.77476020             0.00000000
C              1.22352318           297.77476020             0.00000000
C             -3.63501698           297.80500566             0.00000000
C              3.63501698           297.80500566             0.00000000
C             -3.63501698           299.16335990             0.00000000
C              3.63501698           299.16335990             0.00000000
C             -1.22352318           299.19360536             0.00000000
C              1.22352318           299.19360536             0.00000000
H              4.59680947           299.68312729             0.00000000
H             -4.59680947           299.68312729             0.00000000
C              2.44067137           299.89783018             0.00000000
C             -2.44067137           299.89783018             0.00000000
C              0.00000000           299.90679016             0.00000000
C              0.00000000           301.32563516             0.00000000
C             -2.44067137           301.33459514             0.00000000
C              2.44067137           301.33459514             0.00000000
H             -4.59680947           301.54929802             0.00000000
H              4.59680947           301.54929802             0.00000000
C             -1.22352318           302.03881995             0.00000000
C              1.22352318           302.03881995             0.00000000
C             -3.63501698           302.06906541             0.00000000
C              3.63501698           302.06906541             0.00000000
C             -3.63501698           303.42741965             0.00000000
C              3.63501698           303.42741965             0.00000000
C              1.22352318           303.45766512             0.00000000
C             -1.22352318           303.45766512             0.00000000
H              4.59680947           303.94718704             0.00000000
H             -4.59680947           303.94718704             0.00000000
C              2.44067137           304.16188993             0.00000000
C             -2.44067137           304.16188993             0.00000000
C              0.00000000           304.17084991             0.00000000
C              0.00000000           305.58969491             0.00000000
C             -2.44067137           305.59865489             0.00000000
C              2.44067137           305.59865489             0.00000000
H              4.59680947           305.81335778             0.00000000
H             -4.59680947           305.81335778             0.00000000
C              1.22352318           306.30287971             0.00000000
C             -1.22352318           306.30287971             0.00000000
C             -3.63501698           306.33312517             0.00000000
C              3.63501698           306.33312517             0.00000000
C              3.63501698           307.69147941             0.00000000
C             -3.63501698           307.69147941             0.00000000
C             -1.22352318           307.72172487             0.00000000
C              1.22352318           307.72172487             0.00000000
H              4.59680947           308.21124680             0.00000000
H             -4.59680947           308.21124680             0.00000000
C             -2.44067137           308.42594968             0.00000000
C              2.44067137           308.42594968             0.00000000
C              0.00000000           308.43490967             0.00000000
C              0.00000000           309.85375466             0.00000000
C              2.44067137           309.86271464             0.00000000
C             -2.44067137           309.86271464             0.00000000
H             -4.59680947           310.07741753             0.00000000
H              4.59680947           310.07741753             0.00000000
C             -1.22352318           310.56693946             0.00000000
C              1.22352318           310.56693946             0.00000000
C              3.63501698           310.59718492             0.00000000
C             -3.63501698           310.59718492             0.00000000
C              3.63501698           311.95553916             0.00000000
C             -3.63501698           311.95553916             0.00000000
C              1.22352318           311.98578462             0.00000000
C             -1.22352318           311.98578462             0.00000000
H              4.59680947           312.47530655             0.00000000
H             -4.59680947           312.47530655             0.00000000
C             -2.44067137           312.69000944             0.00000000
C              2.44067137           312.69000944             0.00000000
C              0.00000000           312.69896942             0.00000000
C              0.00000000           314.11781442             0.00000000
C              2.44067137           314.12677440             0.00000000
C             -2.44067137           314.12677440             0.00000000
H              4.59680947           314.34147729             0.00000000
H             -4.59680947           314.34147729             0.00000000
C             -1.22352318           314.83099921             0.00000000
C              1.22352318           314.83099921             0.00000000
C              3.63501698           314.86124468             0.00000000
C             -3.63501698           314.86124468             0.00000000
C             -3.63501698           316.21959892             0.00000000
C              3.63501698           316.21959892             0.00000000
C              1.22352318           316.24984438             0.00000000
C             -1.22352318           316.24984438             0.00000000
H              4.59680947           316.73936631             0.00000000
H             -4.59680947           316.73936631             0.00000000
C              2.44067137           316.95406919             0.00000000
C             -2.44067137           316.95406919             0.00000000
C              0.00000000           316.96302917             0.00000000
C              0.00000000           318.38187417             0.00000000
C              2.44067137           318.39083415             0.00000000
C             -2.44067137           318.39083415             0.00000000
H              4.59680947           318.60553704             0.00000000
H             -4.59680947           318.60553704             0.00000000
C              1.22352318           319.09505897             0.00000000
C             -1.22352318           319.09505897             0.00000000
C             -3.63501698           319.12530443             0.00000000
C              3.63501698           319.12530443             0.00000000
C             -3.63501698           320.48365867             0.00000000
C              3.63501698           320.48365867             0.00000000
C              1.22352318           320.51390413             0.00000000
C             -1.22352318           320.51390413             0.00000000
H              4.59680947           321.00342606             0.00000000
H             -4.59680947           321.00342606             0.00000000
C             -2.44067137           321.21812895             0.00000000
C              2.44067137           321.21812895             0.00000000
C              0.00000000           321.22708893             0.00000000
C              0.00000000           322.64593393             0.00000000
C              2.44067137           322.65489391             0.00000000
C             -2.44067137           322.65489391             0.00000000
H              4.59680947           322.86959679             0.00000000
H             -4.59680947           322.86959679             0.00000000
C             -1.22352318           323.35911872             0.00000000
C              1.22352318           323.35911872             0.00000000
C             -3.63501698           323.38936418             0.00000000
C              3.63501698           323.38936418             0.00000000
C              3.63501698           324.74771842             0.00000000
C             -3.63501698           324.74771842             0.00000000
C              1.22352318           324.77796389             0.00000000
C             -1.22352318           324.77796389             0.00000000
H              4.59680947           325.26748581             0.00000000
H             -4.59680947           325.26748581             0.00000000
C              2.44067137           325.48218870             0.00000000
C             -2.44067137           325.48218870             0.00000000
C              0.00000000           325.49114868             0.00000000
C              0.00000000           326.90999368             0.00000000
C             -2.44067137           326.91895366             0.00000000
C              2.44067137           326.91895366             0.00000000
H             -4.59680947           327.13365655             0.00000000
H              4.59680947           327.13365655             0.00000000
C             -1.22352318           327.62317848             0.00000000
C              1.22352318           327.62317848             0.00000000
C              3.63501698           327.65342394             0.00000000
C             -3.63501698           327.65342394             0.00000000
C             -3.63501698           329.01177818             0.00000000
C              3.63501698           329.01177818             0.00000000
C              1.22352318           329.04202364             0.00000000
C             -1.22352318           329.04202364             0.00000000
H             -4.59680947           329.53154557             0.00000000
H              4.59680947           329.53154557             0.00000000
C             -2.44067137           329.74624845             0.00000000
C              2.44067137           329.74624845             0.00000000
C              0.00000000           329.75520843             0.00000000
C              0.00000000           331.17405343             0.00000000
C              2.44067137           331.18301342             0.00000000
C             -2.44067137           331.18301342             0.00000000
H             -4.59680947           331.39771630             0.00000000
H              4.59680947           331.39771630             0.00000000
C             -1.22352318           331.88723823             0.00000000
C              1.22352318           331.88723823             0.00000000
C             -3.63501698           331.91748369             0.00000000
C              3.63501698           331.91748369             0.00000000
C              3.63501698           333.27583793             0.00000000
C             -3.63501698           333.27583793             0.00000000
C              1.22352318           333.30608339             0.00000000
C             -1.22352318           333.30608339             0.00000000
H              4.59680947           333.79560532             0.00000000
H             -4.59680947           333.79560532             0.00000000
C              2.44067137           334.01030821             0.00000000
C             -2.44067137           334.01030821             0.00000000
C              0.00000000           334.01926819             0.00000000
C              0.00000000           335.43811319             0.00000000
C             -2.44067137           335.44707317             0.00000000
C              2.44067137           335.44707317             0.00000000
H             -4.59680947           335.66177606             0.00000000
H              4.59680947           335.66177606             0.00000000
C              1.22352318           336.15129798             0.00000000
C             -1.22352318           336.15129798             0.00000000
C              3.63501698           336.18154345             0.00000000
C             -3.63501698           336.18154345             0.00000000
C             -3.63501698           337.53989769             0.00000000
C              3.63501698           337.53989769             0.00000000
C              1.22352318           337.57014315             0.00000000
C             -1.22352318           337.57014315             0.00000000
H             -4.59680947           338.05966508             0.00000000
H              4.59680947           338.05966508             0.00000000
C              2.44067137           338.27436796             0.00000000
C             -2.44067137           338.27436796             0.00000000
C              0.00000000           338.28332794             0.00000000
C              0.00000000           339.70217294             0.00000000
C              2.44067137           339.71113292             0.00000000
C             -2.44067137           339.71113292             0.00000000
H             -4.59680947           339.92583581             0.00000000
H              4.59680947           339.92583581             0.00000000
C             -1.22352318           340.41535774             0.00000000
C              1.22352318           340.41535774             0.00000000
C              3.63501698           340.44560320             0.00000000
C             -3.63501698           340.44560320             0.00000000
C              3.63501698           341.80395744             0.00000000
C             -3.63501698           341.80395744             0.00000000
C             -1.22352318           341.83420290             0.00000000
C              1.22352318           341.83420290             0.00000000
H             -4.59680947           342.32372483             0.00000000
H              4.59680947           342.32372483             0.00000000
C              2.44067137           342.53842772             0.00000000
C             -2.44067137           342.53842772             0.00000000
C              0.00000000           342.54738770             0.00000000
C              0.00000000           343.96623270             0.00000000
C              2.44067137           343.97519268             0.00000000
C             -2.44067137           343.97519268             0.00000000
H             -4.59680947           344.18989556             0.00000000
H              4.59680947           344.18989556             0.00000000
C              1.22352318           344.67941749             0.00000000
C             -1.22352318           344.67941749             0.00000000
C             -3.63501698           344.70966295             0.00000000
C              3.63501698           344.70966295             0.00000000
C             -3.63501698           346.06801719             0.00000000
C              3.63501698           346.06801719             0.00000000
C             -1.22352318           346.09826266             0.00000000
C              1.22352318           346.09826266             0.00000000
H             -4.59680947           346.58778458             0.00000000
H              4.59680947           346.58778458             0.00000000
C              2.44067137           346.80248747             0.00000000
C             -2.44067137           346.80248747             0.00000000
C              0.00000000           346.81144745             0.00000000
C              0.00000000           348.23029245             0.00000000
C              2.44067137           348.23925243             0.00000000
C             -2.44067137           348.23925243             0.00000000
H             -4.59680947           348.45395532             0.00000000
H              4.59680947           348.45395532             0.00000000
C              1.22352318           348.94347725             0.00000000
C             -1.22352318           348.94347725             0.00000000
C              3.63501698           348.97372271             0.00000000
C             -3.63501698           348.97372271             0.00000000
C              3.63501698           350.33207695             0.00000000
C             -3.63501698           350.33207695             0.00000000
C             -1.22352318           350.36232241             0.00000000
C              1.22352318           350.36232241             0.00000000
H             -4.59680947           350.85184434             0.00000000
H              4.59680947           350.85184434             0.00000000
C              2.44067137           351.06654722             0.00000000
C             -2.44067137           351.06654722             0.00000000
C              0.00000000           351.07550721             0.00000000
C              0.00000000           352.49435220             0.00000000
C             -2.44067137           352.50331219             0.00000000
C              2.44067137           352.50331219             0.00000000
H              4.59680947           352.71801507             0.00000000
H             -4.59680947           352.71801507             0.00000000
C             -1.22352318           353.20753700             0.00000000
C              1.22352318           353.20753700             0.00000000
C              3.63501698           353.23778246             0.00000000
C             -3.63501698           353.23778246             0.00000000
C             -3.63501698           354.59613670             0.00000000
C              3.63501698           354.59613670             0.00000000
C             -1.22352318           354.62638216             0.00000000
C              1.22352318           354.62638216             0.00000000
H              4.59680947           355.11590409             0.00000000
H             -4.59680947           355.11590409             0.00000000
C             -2.44067137           355.33060698             0.00000000
C              2.44067137           355.33060698             0.00000000
C              0.00000000           355.33956696             0.00000000
C              0.00000000           356.75841196             0.00000000
C              2.44067137           356.76737194             0.00000000
C             -2.44067137           356.76737194             0.00000000
H              4.59680947           356.98207483             0.00000000
H             -4.59680947           356.98207483             0.00000000
C              1.22352318           357.47159675             0.00000000
C             -1.22352318           357.47159675             0.00000000
C              3.63501698           357.50184222             0.00000000
C             -3.63501698           357.50184222             0.00000000
C              3.63501698           358.86019646             0.00000000
C             -3.63501698           358.86019646             0.00000000
C              1.22352318           358.89044192             0.00000000
C             -1.22352318           358.89044192             0.00000000
H              4.59680947           359.37996385             0.00000000
H             -4.59680947           359.37996385             0.00000000
C              2.44067137           359.59466673             0.00000000
C             -2.44067137           359.59466673             0.00000000
C              0.00000000           359.60362671             0.00000000
C              0.00000000           361.02247171             0.00000000
C             -2.44067137           361.03143169             0.00000000
C              2.44067137           361.03143169             0.00000000
H              4.59680947           361.24613458             0.00000000
H             -4.59680947           361.24613458             0.00000000
C              1.22352318           361.73565651             0.00000000
C             -1.22352318           361.73565651             0.00000000
C              3.63501698           361.76590197             0.00000000
C             -3.63501698           361.76590197             0.00000000
C              3.63501698           363.12425621             0.00000000
C             -3.63501698           363.12425621             0.00000000
C             -1.22352318           363.15450167             0.00000000
C              1.22352318           363.15450167             0.00000000
H              4.59680947           363.64402360             0.00000000
H             -4.59680947           363.64402360             0.00000000
C              2.44067137           363.85872649             0.00000000
C             -2.44067137           363.85872649             0.00000000
C              0.00000000           363.86768647             0.00000000
C              0.00000000           365.28653147             0.00000000
C              2.44067137           365.29549145             0.00000000
C             -2.44067137           365.29549145             0.00000000
H              4.59680947           365.51019433             0.00000000
H             -4.59680947           365.51019433             0.00000000
C              1.22352318           365.99971626             0.00000000
C             -1.22352318           365.99971626             0.00000000
C              3.63501698           366.02996172             0.00000000
C             -3.63501698           366.02996172             0.00000000
C             -3.63501698           367.38831596             0.00000000
C              3.63501698           367.38831596             0.00000000
C             -1.22352318           367.41856143             0.00000000
C              1.22352318           367.41856143             0.00000000
H             -4.59680947           367.90808335             0.00000000
H              4.59680947           367.90808335             0.00000000
C             -2.44067137           368.12278624             0.00000000
C              2.44067137           368.12278624             0.00000000
C              0.00000000           368.13174622             0.00000000
C              0.00000000           369.55059122             0.00000000
C             -2.44067137           369.55955120             0.00000000
C              2.44067137           369.55955120             0.00000000
H             -4.59680947           369.77425409             0.00000000
H              4.59680947           369.77425409             0.00000000
C             -1.22352318           370.26377602             0.00000000
C              1.22352318           370.26377602             0.00000000
C              3.63501698           370.29402148             0.00000000
C             -3.63501698           370.29402148             0.00000000
C             -3.63501698           371.65237572             0.00000000
C              3.63501698           371.65237572             0.00000000
C              1.22352318           371.68262118             0.00000000
C             -1.22352318           371.68262118             0.00000000
H             -4.59680947           372.17214311             0.00000000
H              4.59680947           372.17214311             0.00000000
C              2.44067137           372.38684599             0.00000000
C             -2.44067137           372.38684599             0.00000000
C              0.00000000           372.39580598             0.00000000
C              0.00000000           373.81465097             0.00000000
C             -2.44067137           373.82361095             0.00000000
C              2.44067137           373.82361095             0.00000000
H             -4.59680947           374.03831384             0.00000000
H              4.59680947           374.03831384             0.00000000
C             -1.22352318           374.52783577             0.00000000
C              1.22352318           374.52783577             0.00000000
C              3.63501698           374.55808123             0.00000000
C             -3.63501698           374.55808123             0.00000000
C             -3.63501698           375.91643547             0.00000000
C              3.63501698           375.91643547             0.00000000
C              1.22352318           375.94668093             0.00000000
C             -1.22352318           375.94668093             0.00000000
H              4.59680947           376.43620286             0.00000000
H             -4.59680947           376.43620286             0.00000000
C              2.44067137           376.65090575             0.00000000
C             -2.44067137           376.65090575             0.00000000
C              0.00000000           376.65986573             0.00000000
C              0.00000000           378.07871073             0.00000000
C              2.44067137           378.08767071             0.00000000
C             -2.44067137           378.08767071             0.00000000
H             -4.59680947           378.30237360             0.00000000
H              4.59680947           378.30237360             0.00000000
C             -1.22352318           378.79189552             0.00000000
C              1.22352318           378.79189552             0.00000000
C              3.63501698           378.82214099             0.00000000
C             -3.63501698           378.82214099             0.00000000
C              3.63501698           380.18049523             0.00000000
C             -3.63501698           380.18049523             0.00000000
C              1.22352318           380.21074069             0.00000000
C             -1.22352318           380.21074069             0.00000000
H              4.59680947           380.70026262             0.00000000
H             -4.59680947           380.70026262             0.00000000
C             -2.44067137           380.91496550             0.00000000
C              2.44067137           380.91496550             0.00000000
C              0.00000000           380.92392548             0.00000000
C              0.00000000           382.34277048             0.00000000
C             -2.44067137           382.35173046             0.00000000
C              2.44067137           382.35173046             0.00000000
H              4.59680947           382.56643335             0.00000000
H             -4.59680947           382.56643335             0.00000000
C              1.22352318           383.05595528             0.00000000
C             -1.22352318           383.05595528             0.00000000
C             -3.63501698           383.08620074             0.00000000
C              3.63501698           383.08620074             0.00000000
C              3.63501698           384.44455498             0.00000000
C             -3.63501698           384.44455498             0.00000000
C             -1.22352318           384.47480044             0.00000000
C              1.22352318           384.47480044             0.00000000
H              4.59680947           384.96432237             0.00000000
H             -4.59680947           384.96432237             0.00000000
C             -2.44067137           385.17902526             0.00000000
C              2.44067137           385.17902526             0.00000000
C              0.00000000           385.18798524             0.00000000
C              0.00000000           386.60683024             0.00000000
C              2.44067137           386.61579022             0.00000000
C             -2.44067137           386.61579022             0.00000000
H             -4.59680947           386.83049310             0.00000000
H              4.59680947           386.83049310             0.00000000
C             -1.22352318           387.32001503             0.00000000
C              1.22352318           387.32001503             0.00000000
C              3.63501698           387.35026049             0.00000000
C             -3.63501698           387.35026049             0.00000000
C              3.63501698           388.70861473             0.00000000
C             -3.63501698           388.70861473             0.00000000
C             -1.22352318           388.73886020             0.00000000
C              1.22352318           388.73886020             0.00000000
H             -4.59680947           389.22838212             0.00000000
H              4.59680947           389.22838212             0.00000000
C              2.44067137           389.44308501             0.00000000
C             -2.44067137           389.44308501             0.00000000
C              0.00000000           389.45204499             0.00000000
C              0.00000000           390.87088999             0.00000000
C             -2.44067137           390.87984997             0.00000000
C              2.44067137           390.87984997             0.00000000
H              4.59680947           391.09455286             0.00000000
H             -4.59680947           391.09455286             0.00000000
C              1.22352318           391.58407479             0.00000000
C             -1.22352318           391.58407479             0.00000000
C              3.63501698           391.61432025             0.00000000
C             -3.63501698           391.61432025             0.00000000
C              3.63501698           392.97267449             0.00000000
C             -3.63501698           392.97267449             0.00000000
C              1.22352318           393.00291995             0.00000000
C             -1.22352318           393.00291995             0.00000000
H             -4.59680947           393.49244188             0.00000000
H              4.59680947           393.49244188             0.00000000
C             -2.44067137           393.70714476             0.00000000
C              2.44067137           393.70714476             0.00000000
C              0.00000000           393.71610474             0.00000000
C              0.00000000           395.13494974             0.00000000
C             -2.44067137           395.14390973             0.00000000
C              2.44067137           395.14390973             0.00000000
H             -4.59680947           395.35861261             0.00000000
H              4.59680947           395.35861261             0.00000000
C             -1.22352318           395.84813454             0.00000000
C              1.22352318           395.84813454             0.00000000
C              3.63501698           395.87838000             0.00000000
C             -3.63501698           395.87838000             0.00000000
C              3.63501698           397.23673424             0.00000000
C             -3.63501698           397.23673424             0.00000000
C             -1.22352318           397.26697970             0.00000000
C              1.22352318           397.26697970             0.00000000
H             -4.59680947           397.75650163             0.00000000
H              4.59680947           397.75650163             0.00000000
C             -2.44067137           397.97120452             0.00000000
C              2.44067137           397.97120452             0.00000000
C              0.00000000           397.98016450             0.00000000
C              0.00000000           399.39900950             0.00000000
C             -2.44067137           399.40796948             0.00000000
C              2.44067137           399.40796948             0.00000000
H              4.59680947           399.62267237             0.00000000
H             -4.59680947           399.62267237             0.00000000
C             -1.22352318           400.11219429             0.00000000
C              1.22352318           400.11219429             0.00000000
C             -3.63501698           400.14243976             0.00000000
C              3.63501698           400.14243976             0.00000000
C              3.63501698           401.50079400             0.00000000
C             -3.63501698           401.50079400             0.00000000
C              1.22352318           401.53103946             0.00000000
C             -1.22352318           401.53103946             0.00000000
H             -4.59680947           402.02056139             0.00000000
H              4.59680947           402.02056139             0.00000000
C              2.44067137           402.23526427             0.00000000
C             -2.44067137           402.23526427             0.00000000
C              0.00000000           402.24422425             0.00000000
C              0.00000000           403.66306925             0.00000000
C              2.44067137           403.67202923             0.00000000
C             -2.44067137           403.67202923             0.00000000
H             -4.59680947           403.88673212             0.00000000
H              4.59680947           403.88673212             0.00000000
C             -1.22352318           404.37625405             0.00000000
C              1.22352318           404.37625405             0.00000000
C              3.63501698           404.40649951             0.00000000
C             -3.63501698           404.40649951             0.00000000
C             -3.63501698           405.76485375             0.00000000
C              3.63501698           405.76485375             0.00000000
C             -1.22352318           405.79509921             0.00000000
C              1.22352318           405.79509921             0.00000000
H             -4.59680947           406.28462114             0.00000000
H              4.59680947           406.28462114             0.00000000
C              2.44067137           406.49932403             0.00000000
C             -2.44067137           406.49932403             0.00000000
C              0.00000000           406.50828401             0.00000000
C              0.00000000           407.92712901             0.00000000
C             -2.44067137           407.93608899             0.00000000
C              2.44067137           407.93608899             0.00000000
H             -4.59680947           408.15079187             0.00000000
H              4.59680947           408.15079187             0.00000000
C              1.22352318           408.64031380             0.00000000
C             -1.22352318           408.64031380             0.00000000
C              3.63501698           408.67055926             0.00000000
C             -3.63501698           408.67055926             0.00000000
C              3.63501698           410.02891350             0.00000000
C             -3.63501698           410.02891350             0.00000000
C             -1.22352318           410.05915897             0.00000000
C              1.22352318           410.05915897             0.00000000
H              4.59680947           410.54868089             0.00000000
H             -4.59680947           410.54868089             0.00000000
C              2.44067137           410.76338378             0.00000000
C             -2.44067137           410.76338378             0.00000000
C              0.00000000           410.77234376             0.00000000
C              0.00000000           412.19118876             0.00000000
C             -2.44067137           412.20014874             0.00000000
C              2.44067137           412.20014874             0.00000000
H             -4.59680947           412.41485163             0.00000000
H              4.59680947           412.41485163             0.00000000
C             -1.22352318           412.90437356             0.00000000
C              1.22352318           412.90437356             0.00000000
C              3.63501698           412.93461902             0.00000000
C             -3.63501698           412.93461902             0.00000000
C             -3.63501698           414.29297326             0.00000000
C              3.63501698           414.29297326             0.00000000
C              1.22352318           414.32321872             0.00000000
C             -1.22352318           414.32321872             0.00000000
H              4.59680947           414.81274065             0.00000000
H             -4.59680947           414.81274065             0.00000000
C             -2.44067137           415.02744353             0.00000000
C              2.44067137           415.02744353             0.00000000
C              0.00000000           415.03640352             0.00000000
C              0.00000000           416.45524851             0.00000000
C              2.44067137           416.46420849             0.00000000
C             -2.44067137           416.46420849             0.00000000
H              4.59680947           416.67891138             0.00000000
H             -4.59680947           416.67891138             0.00000000
C              1.22352318           417.16843331             0.00000000
C             -1.22352318           417.16843331             0.00000000
C              3.63501698           417.19867877             0.00000000
C             -3.63501698           417.19867877             0.00000000
C             -3.63501698           418.55703301             0.00000000
C              3.63501698           418.55703301             0.00000000
C             -1.22352318           418.58727847             0.00000000
C              1.22352318           418.58727847             0.00000000
H              4.59680947           419.07680040             0.00000000
H             -4.59680947           419.07680040             0.00000000
C              2.44067137           419.29150329             0.00000000
C             -2.44067137           419.29150329             0.00000000
C              0.00000000           419.30046327             0.00000000
C              0.00000000           420.71930827             0.00000000
C              2.44067137           420.72826825             0.00000000
C             -2.44067137           420.72826825             0.00000000
H             -4.59680947           420.94297114             0.00000000
H              4.59680947           420.94297114             0.00000000
C              1.22352318           421.43249306             0.00000000
C             -1.22352318           421.43249306             0.00000000
C             -3.63501698           421.46273853             0.00000000
C              3.63501698           421.46273853             0.00000000
C              3.63501698           422.82109277             0.00000000
C             -3.63501698           422.82109277             0.00000000
C              1.22352318           422.85133823             0.00000000
C             -1.22352318           422.85133823             0.00000000
H             -4.59680947           423.34086016             0.00000000
H              4.59680947           423.34086016             0.00000000
C              2.44067137           423.55556304             0.00000000
C             -2.44067137           423.55556304             0.00000000
C              0.00000000           423.56452302             0.00000000
C              0.00000000           424.98336802             0.00000000
C              2.44067137           424.99232800             0.00000000
C             -2.44067137           424.99232800             0.00000000
H              4.59680947           425.20703089             0.00000000
H             -4.59680947           425.20703089             0.00000000
C              1.22352318           425.69655282             0.00000000
C             -1.22352318           425.69655282             0.00000000
C              3.63501698           425.72679828             0.00000000
C             -3.63501698           425.72679828             0.00000000
C              3.63501698           427.08515252             0.00000000
C             -3.63501698           427.08515252             0.00000000
C             -1.22352318           427.11539798             0.00000000
C              1.22352318           427.11539798             0.00000000
H              4.59680947           427.60491991             0.00000000
H             -4.59680947           427.60491991             0.00000000
C              2.44067137           427.81962280             0.00000000
C             -2.44067137           427.81962280             0.00000000
C              0.00000000           427.82858278             0.00000000
C              0.00000000           429.24742778             0.00000000
C              2.44067137           429.25638776             0.00000000
C             -2.44067137           429.25638776             0.00000000
H              4.59680947           429.47109064             0.00000000
H             -4.59680947           429.47109064             0.00000000
C             -1.22352318           429.96061257             0.00000000
C              1.22352318           429.96061257             0.00000000
C             -3.63501698           429.99085803             0.00000000
C              3.63501698           429.99085803             0.00000000
C              3.63501698           431.34921227             0.00000000
C             -3.63501698           431.34921227             0.00000000
C             -1.22352318           431.37945774             0.00000000
C              1.22352318           431.37945774             0.00000000
H              4.59680947           431.86897966             0.00000000
H             -4.59680947           431.86897966             0.00000000
C              2.44067137           432.08368255             0.00000000
C             -2.44067137           432.08368255             0.00000000
C              0.00000000           432.09264253             0.00000000
C              0.00000000           433.51148753             0.00000000
C              2.44067137           433.52044751             0.00000000
C             -2.44067137           433.52044751             0.00000000
H              4.59680947           433.73515040             0.00000000
H             -4.59680947           433.73515040             0.00000000
C             -1.22352318           434.22467233             0.00000000
C              1.22352318           434.22467233             0.00000000
C             -3.63501698           434.25491779             0.00000000
C              3.63501698           434.25491779             0.00000000
C              3.63501698           435.61327203             0.00000000
C             -3.63501698           435.61327203             0.00000000
C             -1.22352318           435.64351749             0.00000000
C              1.22352318           435.64351749             0.00000000
H             -4.59680947           436.13303942             0.00000000
H              4.59680947           436.13303942             0.00000000
C             -2.44067137           436.34774230             0.00000000
C              2.44067137           436.34774230             0.00000000
C              0.00000000           436.35670228             0.00000000
C              0.00000000           437.77554728             0.00000000
C              2.44067137           437.78450727             0.00000000
C             -2.44067137           437.78450727             0.00000000
H              4.59680947           437.99921015             0.00000000
H             -4.59680947           437.99921015             0.00000000
C              1.22352318           438.48873208             0.00000000
C             -1.22352318           438.48873208             0.00000000
C              3.63501698           438.51897754             0.00000000
C             -3.63501698           438.51897754             0.00000000
C              3.63501698           439.87733178             0.00000000
C             -3.63501698           439.87733178             0.00000000
C              1.22352318           439.90757724             0.00000000
C             -1.22352318           439.90757724             0.00000000
H              4.59680947           440.39709917             0.00000000
H             -4.59680947           440.39709917             0.00000000
C              2.44067137           440.61180206             0.00000000
C             -2.44067137           440.61180206             0.00000000
C              0.00000000           440.62076204             0.00000000
C              0.00000000           442.03960704             0.00000000
C              2.44067137           442.04856702             0.00000000
C             -2.44067137           442.04856702             0.00000000
H             -4.59680947           442.26326991             0.00000000
H              4.59680947           442.26326991             0.00000000
C             -1.22352318           442.75279183             0.00000000
C              1.22352318           442.75279183             0.00000000
C             -3.63501698           442.78303730             0.00000000
C              3.63501698           442.78303730             0.00000000
C             -3.63501698           444.14139154             0.00000000
C              3.63501698           444.14139154             0.00000000
C             -1.22352318           444.17163700             0.00000000
C              1.22352318           444.17163700             0.00000000
H             -4.59680947           444.66115893             0.00000000
H              4.59680947           444.66115893             0.00000000
C             -2.44067137           444.87586181             0.00000000
C              2.44067137           444.87586181             0.00000000
C              0.00000000           444.88482179             0.00000000
C              0.00000000           446.30366679             0.00000000
C             -2.44067137           446.31262677             0.00000000
C              2.44067137           446.31262677             0.00000000
H             -4.59680947           446.52732966             0.00000000
H              4.59680947           446.52732966             0.00000000
C              1.22352318           447.01685159             0.00000000
C             -1.22352318           447.01685159             0.00000000
C              3.63501698           447.04709705             0.00000000
C             -3.63501698           447.04709705             0.00000000
C              3.63501698           448.40545129             0.00000000
C             -3.63501698           448.40545129             0.00000000
C              1.22352318           448.43569675             0.00000000
C             -1.22352318           448.43569675             0.00000000
H             -4.59680947           448.92521868             0.00000000
H              4.59680947           448.92521868             0.00000000
C             -2.44067137           449.13992157             0.00000000
C              2.44067137           449.13992157             0.00000000
C              0.00000000           449.14888155             0.00000000
C              0.00000000           450.56772655             0.00000000
C             -2.44067137           450.57668653             0.00000000
C              2.44067137           450.57668653             0.00000000
H              4.59680947           450.79138941             0.00000000
H             -4.59680947           450.79138941             0.00000000
C             -1.22352318           451.28091134             0.00000000
C              1.22352318           451.28091134             0.00000000
C             -3.63501698           451.31115680             0.00000000
C              3.63501698           451.31115680             0.00000000
C             -3.63501698           452.66951104             0.00000000
C              3.63501698           452.66951104             0.00000000
C              1.22352318           452.69975651             0.00000000
C             -1.22352318           452.69975651             0.00000000
H             -4.59680947           453.18927843             0.00000000
H              4.59680947           453.18927843             0.00000000
C             -2.44067137           453.40398132             0.00000000
C              2.44067137           453.40398132             0.00000000
C              0.00000000           453.41294130             0.00000000
C              0.00000000           454.83178630             0.00000000
C              2.44067137           454.84074628             0.00000000
C             -2.44067137           454.84074628             0.00000000
H              4.59680947           455.05544917             0.00000000
H             -4.59680947           455.05544917             0.00000000
C              1.22352318           455.54497110             0.00000000
C             -1.22352318           455.54497110             0.00000000
C              3.63501698           455.57521656             0.00000000
C             -3.63501698           455.57521656             0.00000000
C              3.63501698           456.93357080             0.00000000
C             -3.63501698           456.93357080             0.00000000
C             -1.22352318           456.96381626             0.00000000
C              1.22352318           456.96381626             0.00000000
H              4.59680947           457.45333819             0.00000000
H             -4.59680947           457.45333819             0.00000000
C              2.44067137           457.66804107             0.00000000
C             -2.44067137           457.66804107             0.00000000
C              0.00000000           457.67700106             0.00000000
C              0.00000000           459.09584605             0.00000000
C              2.44067137           459.10480604             0.00000000
C             -2.44067137           459.10480604             0.00000000
H             -4.59680947           459.31950892             0.00000000
H              4.59680947           459.31950892             0.00000000
C              1.22352318           459.80903085             0.00000000
C             -1.22352318           459.80903085             0.00000000
C             -3.63501698           459.83927631             0.00000000
C              3.63501698           459.83927631             0.00000000
C             -3.63501698           461.19763055             0.00000000
C              3.63501698           461.19763055             0.00000000
C              1.22352318           461.22787601             0.00000000
C             -1.22352318           461.22787601             0.00000000
H              4.59680947           461.71739794             0.00000000
H             -4.59680947           461.71739794             0.00000000
C             -2.44067137           461.93210083             0.00000000
C              2.44067137           461.93210083             0.00000000
C              0.00000000           461.94106081             0.00000000
C              0.00000000           463.35990581             0.00000000
C             -2.44067137           463.36886579             0.00000000
C              2.44067137           463.36886579             0.00000000
H             -4.59680947           463.58356868             0.00000000
H              4.59680947           463.58356868             0.00000000
C             -1.22352318           464.07309060             0.00000000
C              1.22352318           464.07309060             0.00000000
C             -3.63501698           464.10333607             0.00000000
C              3.63501698           464.10333607             0.00000000
C              3.63501698           465.46169031             0.00000000
C             -3.63501698           465.46169031             0.00000000
C              1.22352318           465.49193577             0.00000000
C             -1.22352318           465.49193577             0.00000000
H             -4.59680947           465.98145770             0.00000000
H              4.59680947           465.98145770             0.00000000
C              2.44067137           466.19616058             0.00000000
C             -2.44067137           466.19616058             0.00000000
C              0.00000000           466.20512056             0.00000000
C              0.00000000           467.62396556             0.00000000
C              2.44067137           467.63292554             0.00000000
C             -2.44067137           467.63292554             0.00000000
H             -4.59680947           467.84762843             0.00000000
H              4.59680947           467.84762843             0.00000000
C              1.22352318           468.33715036             0.00000000
C             -1.22352318           468.33715036             0.00000000
C              3.63501698           468.36739582             0.00000000
C             -3.63501698           468.36739582             0.00000000
C             -3.63501698           469.72575006             0.00000000
C              3.63501698           469.72575006             0.00000000
C              1.22352318           469.75599552             0.00000000
C             -1.22352318           469.75599552             0.00000000
H              4.59680947           470.24551745             0.00000000
H             -4.59680947           470.24551745             0.00000000
C             -2.44067137           470.46022034             0.00000000
C              2.44067137           470.46022034             0.00000000
C              0.00000000           470.46918032             0.00000000
C              0.00000000           471.88802532             0.00000000
C             -2.44067137           471.89698530             0.00000000
C              2.44067137           471.89698530             0.00000000
H             -4.59680947           472.11168818             0.00000000
H              4.59680947           472.11168818             0.00000000
C              1.22352318           472.60121011             0.00000000
C             -1.22352318           472.60121011             0.00000000
C             -3.63501698           472.63145557             0.00000000
C              3.63501698           472.63145557             0.00000000
C             -3.63501698           473.98980981             0.00000000
C              3.63501698           473.98980981             0.00000000
C              1.22352318           474.02005528             0.00000000
C             -1.22352318           474.02005528             0.00000000
H              4.59680947           474.50957720             0.00000000
H             -4.59680947           474.50957720             0.00000000
C              2.44067137           474.72428009             0.00000000
C             -2.44067137           474.72428009             0.00000000
C              0.00000000           474.73324007             0.00000000
C              0.00000000           476.15208507             0.00000000
C              2.44067137           476.16104505             0.00000000
C             -2.44067137           476.16104505             0.00000000
H              4.59680947           476.37574794             0.00000000
H             -4.59680947           476.37574794             0.00000000
C             -1.22352318           476.86526987             0.00000000
C              1.22352318           476.86526987             0.00000000
C              3.63501698           476.89551533             0.00000000
C             -3.63501698           476.89551533             0.00000000
C             -3.63501698           478.25386957             0.00000000
C              3.63501698           478.25386957             0.00000000
C              1.22352318           478.28411503             0.00000000
C             -1.22352318           478.28411503             0.00000000
H              4.59680947           478.77363696             0.00000000
H             -4.59680947           478.77363696             0.00000000
C             -2.44067137           478.98833984             0.00000000
C              2.44067137           478.98833984             0.00000000
C              0.00000000           478.99729982             0.00000000
C              0.00000000           480.41614482             0.00000000
C             -2.44067137           480.42510480             0.00000000
C              2.44067137           480.42510480             0.00000000
H             -4.59680947           480.63980769             0.00000000
H              4.59680947           480.63980769             0.00000000
C             -1.22352318           481.12932962             0.00000000
C              1.22352318           481.12932962             0.00000000
C              3.63501698           481.15957508             0.00000000
C             -3.63501698           481.15957508             0.00000000
C             -3.63501698           482.51792932             0.00000000
C              3.63501698           482.51792932             0.00000000
C             -1.22352318           482.54817478             0.00000000
C              1.22352318           482.54817478             0.00000000
H             -4.59680947           483.03769671             0.00000000
H              4.59680947           483.03769671             0.00000000
C              2.44067137           483.25239960             0.00000000
C             -2.44067137           483.25239960             0.00000000
C              0.00000000           483.26135958             0.00000000
C              0.00000000           484.68020458             0.00000000
C             -2.44067137           484.68916456             0.00000000
C              2.44067137           484.68916456             0.00000000
H              4.59680947           484.90386745             0.00000000
H             -4.59680947           484.90386745             0.00000000
C              1.22352318           485.39338937             0.00000000
C             -1.22352318           485.39338937             0.00000000
C              3.63501698           485.42363484             0.00000000
C             -3.63501698           485.42363484             0.00000000
C             -3.63501698           486.78198908             0.00000000
C              3.63501698           486.78198908             0.00000000
C              1.22352318           486.81223454             0.00000000
C             -1.22352318           486.81223454             0.00000000
H             -4.59680947           487.30175647             0.00000000
H              4.59680947           487.30175647             0.00000000
C             -2.44067137           487.51645935             0.00000000
C              2.44067137           487.51645935             0.00000000
C              0.00000000           487.52541933             0.00000000
C              0.00000000           488.94426433             0.00000000
C             -2.44067137           488.95322431             0.00000000
C              2.44067137           488.95322431             0.00000000
H              4.59680947           489.16792720             0.00000000
H             -4.59680947           489.16792720             0.00000000
C              1.22352318           489.65744913             0.00000000
C             -1.22352318           489.65744913             0.00000000
C              3.63501698           489.68769459             0.00000000
C             -3.63501698           489.68769459             0.00000000
C              3.63501698           491.04604883             0.00000000
C             -3.63501698           491.04604883             0.00000000
C             -1.22352318           491.07629429             0.00000000
C              1.22352318           491.07629429             0.00000000
H             -4.59680947           491.56581622             0.00000000
H              4.59680947           491.56581622             0.00000000
C              2.44067137           491.78051911             0.00000000
C             -2.44067137           491.78051911             0.00000000
C              0.00000000           491.78947909             0.00000000
C              0.00000000           493.20832409             0.00000000
C              2.44067137           493.21728407             0.00000000
C             -2.44067137           493.21728407             0.00000000
H             -4.59680947           493.43198695             0.00000000
H              4.59680947           493.43198695             0.00000000
C             -1.22352318           493.92150888             0.00000000
C              1.22352318           493.92150888             0.00000000
C              3.63501698           493.95175434             0.00000000
C             -3.63501698           493.95175434             0.00000000
C              3.63501698           495.31010858             0.00000000
C             -3.63501698           495.31010858             0.00000000
C             -1.22352318           495.34035405             0.00000000
C              1.22352318           495.34035405             0.00000000
H              4.59680947           495.82987597             0.00000000
H             -4.59680947           495.82987597             0.00000000
C             -2.44067137           496.04457886             0.00000000
C              2.44067137           496.04457886             0.00000000
C              0.00000000           496.05353884             0.00000000
C              0.00000000           497.47238384             0.00000000
C              2.44067137           497.48134382             0.00000000
C             -2.44067137           497.48134382             0.00000000
H             -4.59680947           497.69604671             0.00000000
H              4.59680947           497.69604671             0.00000000
C             -1.22352318           498.18556864             0.00000000
C              1.22352318           498.18556864             0.00000000
C              3.63501698           498.21581410             0.00000000
C             -3.63501698           498.21581410             0.00000000
C             -3.63501698           499.57416834             0.00000000
C              3.63501698           499.57416834             0.00000000
C              1.22352318           499.60441380             0.00000000
C             -1.22352318           499.60441380             0.00000000
H             -4.59680947           500.09393573             0.00000000
H              4.59680947           500.09393573             0.00000000
C              2.44067137           500.30863861             0.00000000
C             -2.44067137           500.30863861             0.00000000
C              0.00000000           500.31759859             0.00000000
C              0.00000000           501.73644359             0.00000000
C             -2.44067137           501.74540358             0.00000000
C              2.44067137           501.74540358             0.00000000
H             -4.59680947           501.96010646             0.00000000
H              4.59680947           501.96010646             0.00000000
C             -1.22352318           502.44962839             0.00000000
C              1.22352318           502.44962839             0.00000000
C             -3.63501698           502.47987385             0.00000000
C              3.63501698           502.47987385             0.00000000
C              3.63501698           503.83822809             0.00000000
C             -3.63501698           503.83822809             0.00000000
C              1.22352318           503.86847355             0.00000000
C             -1.22352318           503.86847355             0.00000000
H              4.59680947           504.35799548             0.00000000
H             -4.59680947           504.35799548             0.00000000
C              2.44067137           504.57269837             0.00000000
C             -2.44067137           504.57269837             0.00000000
C              0.00000000           504.58165835             0.00000000
C              0.00000000           506.00050335             0.00000000
C             -2.44067137           506.00946333             0.00000000
C              2.44067137           506.00946333             0.00000000
H              4.59680947           506.22416622             0.00000000
H             -4.59680947           506.22416622             0.00000000
C             -1.22352318           506.71368814             0.00000000
C              1.22352318           506.71368814             0.00000000
C             -3.63501698           506.74393361             0.00000000
C              3.63501698           506.74393361             0.00000000
C              3.63501698           508.10228785             0.00000000
C             -3.63501698           508.10228785             0.00000000
C             -1.22352318           508.13253331             0.00000000
C              1.22352318           508.13253331             0.00000000
H              4.59680947           508.62205524             0.00000000
H             -4.59680947           508.62205524             0.00000000
C              2.44067137           508.83675812             0.00000000
C             -2.44067137           508.83675812             0.00000000
C              0.00000000           508.84571810             0.00000000
C              0.00000000           510.26456310             0.00000000
C              2.44067137           510.27352308             0.00000000
C             -2.44067137           510.27352308             0.00000000
H              4.59680947           510.48822597             0.00000000
H             -4.59680947           510.48822597             0.00000000
C              1.22352318           510.97774790             0.00000000
C             -1.22352318           510.97774790             0.00000000
C             -3.63501698           511.00799336             0.00000000
C              3.63501698           511.00799336             0.00000000
C              3.63501698           512.36634760             0.00000000
C             -3.63501698           512.36634760             0.00000000
C              1.22352318           512.39659306             0.00000000
C             -1.22352318           512.39659306             0.00000000
H             -4.59680947           512.88611499             0.00000000
H              4.59680947           512.88611499             0.00000000
C              2.44067137           513.10081788             0.00000000
C             -2.44067137           513.10081788             0.00000000
C              0.00000000           513.10977786             0.00000000
C              0.00000000           514.52862286             0.00000000
C             -2.44067137           514.53758284             0.00000000
C              2.44067137           514.53758284             0.00000000
H             -4.59680947           514.75228572             0.00000000
H              4.59680947           514.75228572             0.00000000
C             -1.22352318           515.24180765             0.00000000
C              1.22352318           515.24180765             0.00000000
C              3.63501698           515.27205311             0.00000000
C             -3.63501698           515.27205311             0.00000000
C             -3.63501698           516.63040735             0.00000000
C              3.63501698           516.63040735             0.00000000
C             -1.22352318           516.66065282             0.00000000
C              1.22352318           516.66065282             0.00000000
H              4.59680947           517.15017474             0.00000000
H             -4.59680947           517.15017474             0.00000000
C              2.44067137           517.36487763             0.00000000
C             -2.44067137           517.36487763             0.00000000
C              0.00000000           517.37383761             0.00000000
C              0.00000000           518.79268261             0.00000000
C             -2.44067137           518.80164259             0.00000000
C              2.44067137           518.80164259             0.00000000
H             -4.59680947           519.01634548             0.00000000
H              4.59680947           519.01634548             0.00000000
C             -1.22352318           519.50586741             0.00000000
C              1.22352318           519.50586741             0.00000000
C             -3.63501698           519.53611287             0.00000000
C              3.63501698           519.53611287             0.00000000
C              3.63501698           520.89446711             0.00000000
C             -3.63501698           520.89446711             0.00000000
C              1.22352318           520.92471257             0.00000000
C             -1.22352318           520.92471257             0.00000000
H              4.59680947           521.41423450             0.00000000
H             -4.59680947           521.41423450             0.00000000
C              2.44067137           521.62893738             0.00000000
C             -2.44067137           521.62893738             0.00000000
C              0.00000000           521.63789736             0.00000000
C              0.00000000           523.05674236             0.00000000
C             -2.44067137           523.06570234             0.00000000
C              2.44067137           523.06570234             0.00000000
H             -4.59680947           523.28040523             0.00000000
H              4.59680947           523.28040523             0.00000000
C             -1.22352318           523.76992716             0.00000000
C              1.22352318           523.76992716             0.00000000
C              3.63501698           523.80017262             0.00000000
C             -3.63501698           523.80017262             0.00000000
C             -3.63501698           525.15852686             0.00000000
C              3.63501698           525.15852686             0.00000000
C              1.22352318           525.18877232             0.00000000
C             -1.22352318           525.18877232             0.00000000
H             -4.59680947           525.67829425             0.00000000
H              4.59680947           525.67829425             0.00000000
C              2.44067137           525.89299714             0.00000000
C             -2.44067137           525.89299714             0.00000000
C              0.00000000           525.90195712             0.00000000
C              0.00000000           527.32080212             0.00000000
C             -2.44067137           527.32976210             0.00000000
C              2.44067137           527.32976210             0.00000000
H             -4.59680947           527.54446499             0.00000000
H              4.59680947           527.54446499             0.00000000
C             -1.22352318           528.03398691             0.00000000
C              1.22352318           528.03398691             0.00000000
C             -3.63501698           528.06423238             0.00000000
C              3.63501698           528.06423238             0.00000000
C              3.63501698           529.42258662             0.00000000
C             -3.63501698           529.42258662             0.00000000
C             -1.22352318           529.45283208             0.00000000
C              1.22352318           529.45283208             0.00000000
H              4.59680947           529.94235401             0.00000000
H             -4.59680947           529.94235401             0.00000000
C              2.44067137           530.15705689             0.00000000
C             -2.44067137           530.15705689             0.00000000
C              0.00000000           530.16601687             0.00000000
C              0.00000000           531.58486187             0.00000000
C              2.44067137           531.59382185             0.00000000
C             -2.44067137           531.59382185             0.00000000
H              4.59680947           531.80852474             0.00000000
H             -4.59680947           531.80852474             0.00000000
C              1.22352318           532.29804667             0.00000000
C             -1.22352318           532.29804667             0.00000000
C             -3.63501698           532.32829213             0.00000000
C              3.63501698           532.32829213             0.00000000
C              3.63501698           533.68664637             0.00000000
C             -3.63501698           533.68664637             0.00000000
C             -1.22352318           533.71689183             0.00000000
C              1.22352318           533.71689183             0.00000000
H             -4.59680947           534.20641376             0.00000000
H              4.59680947           534.20641376             0.00000000
C             -2.44067137           534.42111665             0.00000000
C              2.44067137           534.42111665             0.00000000
C              0.00000000           534.43007663             0.00000000
C              0.00000000           535.84892163             0.00000000
C              2.44067137           535.85788161             0.00000000
C             -2.44067137           535.85788161             0.00000000
H             -4.59680947           536.07258449             0.00000000
H              4.59680947           536.07258449             0.00000000
C             -1.22352318           536.56210642             0.00000000
C              1.22352318           536.56210642             0.00000000
C              3.63501698           536.59235188             0.00000000
C             -3.63501698           536.59235188             0.00000000
C             -3.63501698           537.95070612             0.00000000
C              3.63501698           537.95070612             0.00000000
C              1.22352318           537.98095159             0.00000000
C             -1.22352318           537.98095159             0.00000000
H              4.59680947           538.47047351             0.00000000
H             -4.59680947           538.47047351             0.00000000
C              2.44067137           538.68517640             0.00000000
C             -2.44067137           538.68517640             0.00000000
C              0.00000000           538.69413638             0.00000000
C              0.00000000           540.11298138             0.00000000
C             -2.44067137           540.12194136             0.00000000
C              2.44067137           540.12194136             0.00000000
H              4.59680947           540.33664425             0.00000000
H             -4.59680947           540.33664425             0.00000000
C              1.22352318           540.82616618             0.00000000
C             -1.22352318           540.82616618             0.00000000
C             -3.63501698           540.85641164             0.00000000
C              3.63501698           540.85641164             0.00000000
C             -3.63501698           542.21476588             0.00000000
C              3.63501698           542.21476588             0.00000000
C              1.22352318           542.24501134             0.00000000
C             -1.22352318           542.24501134             0.00000000
H              4.59680947           542.73453327             0.00000000
H             -4.59680947           542.73453327             0.00000000
C             -2.44067137           542.94923615             0.00000000
C              2.44067137           542.94923615             0.00000000
C              0.00000000           542.95819613             0.00000000
H              0.00000000           543.73124062             0.77304449
H              0.00000000           543.73124062            -0.77304449
H             -2.44067137           544.04248616             0.00000000
H              2.44067137           544.04248616             0.00000000
