srun: warning: can't honor --ntasks-per-node set to 16 which doesn't match the requested tasks 32 and -mpack, which forces min number of nodes to 1
CPU_SET_HEX_STR_SIZE: 257, Size of mstr: 257
cpu-bind=MASK - cn1336, task  0  0 [1247252]: mask |BBBBBBBB|--------|--------|--------|--------|--------|--------|--------|--------|BBBB----|--------|--------||||--------|--------|--------|--------|--------|--------|--------|--------|--------|--------|--------|--------| set
CPU_SET_HEX_STR_SIZE: 257, Size of mstr: 257
cpu-bind=MASK - cn1336, task  1  1 [1247253]: mask |--------|--------|--------|BBBBBBBB|--------|--------|--------|--------|--------|----BBBB|--------|--------||||--------|--------|--------|--------|--------|--------|--------|--------|--------|--------|--------|--------| set
CPU_SET_HEX_STR_SIZE: 257, Size of mstr: 257
cpu-bind=MASK - cn1336, task  2  2 [1247254]: mask |--------|BBBB----|--------|--------|--------|--------|BBBBBBBB|--------|--------|--------|--------|--------||||--------|--------|--------|--------|--------|--------|--------|--------|--------|--------|--------|--------| set
CPU_SET_HEX_STR_SIZE: 257, Size of mstr: 257
cpu-bind=MASK - cn1336, task  3  3 [1247255]: mask |--------|----BBBB|--------|--------|--------|--------|--------|--------|--------|--------|BBBBBBBB|--------||||--------|--------|--------|--------|--------|--------|--------|--------|--------|--------|--------|--------| set
CPU_SET_HEX_STR_SIZE: 257, Size of mstr: 257
cpu-bind=MASK - cn1336, task  4  4 [1247256]: mask |--------|--------|--------|--------|BBBBBBBB|--------|--------|BBBB----|--------|--------|--------|--------||||--------|--------|--------|--------|--------|--------|--------|--------|--------|--------|--------|--------| set
CPU_SET_HEX_STR_SIZE: 257, Size of mstr: 257
cpu-bind=MASK - cn1336, task  5  5 [1247257]: mask |--------|--------|BBBBBBBB|--------|--------|--------|--------|----BBBB|--------|--------|--------|--------||||--------|--------|--------|--------|--------|--------|--------|--------|--------|--------|--------|--------| set
CPU_SET_HEX_STR_SIZE: 257, Size of mstr: 257
cpu-bind=MASK - cn1336, task  6  6 [1247258]: mask |--------|--------|--------|--------|--------|BBBB----|--------|--------|--------|--------|--------|BBBBBBBB||||--------|--------|--------|--------|--------|--------|--------|--------|--------|--------|--------|--------| set
CPU_SET_HEX_STR_SIZE: 257, Size of mstr: 257
cpu-bind=MASK - cn1336, task  7  7 [1247259]: mask |--------|--------|--------|--------|--------|----BBBB|--------|--------|BBBBBBBB|--------|--------|--------||||--------|--------|--------|--------|--------|--------|--------|--------|--------|--------|--------|--------| set
CPU_SET_HEX_STR_SIZE: 257, Size of mstr: 257
cpu-bind=MASK - cn1336, task  8  8 [1247260]: mask |--------|--------|--------|--------|--------|--------|--------|--------|--------|--------|--------|--------||||BBBBBBBB|--------|--------|--------|--------|--------|--------|--------|--------|BBBB----|--------|--------| set
CPU_SET_HEX_STR_SIZE: 257, Size of mstr: 257
cpu-bind=MASK - cn1336, task  9  9 [1247261]: mask |--------|--------|--------|--------|--------|--------|--------|--------|--------|--------|--------|--------||||--------|--------|--------|BBBBBBBB|--------|--------|--------|--------|--------|----BBBB|--------|--------| set
CPU_SET_HEX_STR_SIZE: 257, Size of mstr: 257
cpu-bind=MASK - cn1336, task 10 10 [1247262]: mask |--------|--------|--------|--------|--------|--------|--------|--------|--------|--------|--------|--------||||--------|BBBB----|--------|--------|--------|--------|BBBBBBBB|--------|--------|--------|--------|--------| set
CPU_SET_HEX_STR_SIZE: 257, Size of mstr: 257
cpu-bind=MASK - cn1336, task 11 11 [1247263]: mask |--------|--------|--------|--------|--------|--------|--------|--------|--------|--------|--------|--------||||--------|----BBBB|--------|--------|--------|--------|--------|--------|--------|--------|BBBBBBBB|--------| set
CPU_SET_HEX_STR_SIZE: 257, Size of mstr: 257
cpu-bind=MASK - cn1336, task 12 12 [1247264]: mask |--------|--------|--------|--------|--------|--------|--------|--------|--------|--------|--------|--------||||--------|--------|--------|--------|BBBBBBBB|--------|--------|BBBB----|--------|--------|--------|--------| set
CPU_SET_HEX_STR_SIZE: 257, Size of mstr: 257
cpu-bind=MASK - cn1336, task 13 13 [1247265]: mask |--------|--------|--------|--------|--------|--------|--------|--------|--------|--------|--------|--------||||--------|--------|BBBBBBBB|--------|--------|--------|--------|----BBBB|--------|--------|--------|--------| set
CPU_SET_HEX_STR_SIZE: 257, Size of mstr: 257
cpu-bind=MASK - cn1336, task 14 14 [1247266]: mask |--------|--------|--------|--------|--------|--------|--------|--------|--------|--------|--------|--------||||--------|--------|--------|--------|--------|BBBB----|--------|--------|--------|--------|--------|BBBBBBBB| set
CPU_SET_HEX_STR_SIZE: 257, Size of mstr: 257
cpu-bind=MASK - cn1336, task 15 15 [1247267]: mask |--------|--------|--------|--------|--------|--------|--------|--------|--------|--------|--------|--------||||--------|--------|--------|--------|--------|----BBBB|--------|--------|BBBBBBBB|--------|--------|--------| set
CPU_SET_HEX_STR_SIZE: 257, Size of mstr: 257
cpu-bind=MASK - cn1340, task 16  0 [1207127]: mask |BBBBBBBB|--------|--------|--------|--------|--------|--------|--------|--------|BBBB----|--------|--------||||--------|--------|--------|--------|--------|--------|--------|--------|--------|--------|--------|--------| set
CPU_SET_HEX_STR_SIZE: 257, Size of mstr: 257
cpu-bind=MASK - cn1340, task 17  1 [1207128]: mask |--------|--------|--------|BBBBBBBB|--------|--------|--------|--------|--------|----BBBB|--------|--------||||--------|--------|--------|--------|--------|--------|--------|--------|--------|--------|--------|--------| set
CPU_SET_HEX_STR_SIZE: 257, Size of mstr: 257
cpu-bind=MASK - cn1340, task 18  2 [1207129]: mask |--------|BBBB----|--------|--------|--------|--------|BBBBBBBB|--------|--------|--------|--------|--------||||--------|--------|--------|--------|--------|--------|--------|--------|--------|--------|--------|--------| set
CPU_SET_HEX_STR_SIZE: 257, Size of mstr: 257
cpu-bind=MASK - cn1340, task 19  3 [1207130]: mask |--------|----BBBB|--------|--------|--------|--------|--------|--------|--------|--------|BBBBBBBB|--------||||--------|--------|--------|--------|--------|--------|--------|--------|--------|--------|--------|--------| set
CPU_SET_HEX_STR_SIZE: 257, Size of mstr: 257
cpu-bind=MASK - cn1340, task 20  4 [1207131]: mask |--------|--------|--------|--------|BBBBBBBB|--------|--------|BBBB----|--------|--------|--------|--------||||--------|--------|--------|--------|--------|--------|--------|--------|--------|--------|--------|--------| set
CPU_SET_HEX_STR_SIZE: 257, Size of mstr: 257
cpu-bind=MASK - cn1340, task 21  5 [1207132]: mask |--------|--------|BBBBBBBB|--------|--------|--------|--------|----BBBB|--------|--------|--------|--------||||--------|--------|--------|--------|--------|--------|--------|--------|--------|--------|--------|--------| set
CPU_SET_HEX_STR_SIZE: 257, Size of mstr: 257
cpu-bind=MASK - cn1340, task 22  6 [1207133]: mask |--------|--------|--------|--------|--------|BBBB----|--------|--------|--------|--------|--------|BBBBBBBB||||--------|--------|--------|--------|--------|--------|--------|--------|--------|--------|--------|--------| set
CPU_SET_HEX_STR_SIZE: 257, Size of mstr: 257
cpu-bind=MASK - cn1340, task 23  7 [1207134]: mask |--------|--------|--------|--------|--------|----BBBB|--------|--------|BBBBBBBB|--------|--------|--------||||--------|--------|--------|--------|--------|--------|--------|--------|--------|--------|--------|--------| set
CPU_SET_HEX_STR_SIZE: 257, Size of mstr: 257
cpu-bind=MASK - cn1340, task 24  8 [1207135]: mask |--------|--------|--------|--------|--------|--------|--------|--------|--------|--------|--------|--------||||BBBBBBBB|--------|--------|--------|--------|--------|--------|--------|--------|BBBB----|--------|--------| set
CPU_SET_HEX_STR_SIZE: 257, Size of mstr: 257
cpu-bind=MASK - cn1340, task 25  9 [1207136]: mask |--------|--------|--------|--------|--------|--------|--------|--------|--------|--------|--------|--------||||--------|--------|--------|BBBBBBBB|--------|--------|--------|--------|--------|----BBBB|--------|--------| set
CPU_SET_HEX_STR_SIZE: 257, Size of mstr: 257
cpu-bind=MASK - cn1340, task 26 10 [1207137]: mask |--------|--------|--------|--------|--------|--------|--------|--------|--------|--------|--------|--------||||--------|BBBB----|--------|--------|--------|--------|BBBBBBBB|--------|--------|--------|--------|--------| set
CPU_SET_HEX_STR_SIZE: 257, Size of mstr: 257
cpu-bind=MASK - cn1340, task 27 11 [1207138]: mask |--------|--------|--------|--------|--------|--------|--------|--------|--------|--------|--------|--------||||--------|----BBBB|--------|--------|--------|--------|--------|--------|--------|--------|BBBBBBBB|--------| set
CPU_SET_HEX_STR_SIZE: 257, Size of mstr: 257
cpu-bind=MASK - cn1340, task 28 12 [1207139]: mask |--------|--------|--------|--------|--------|--------|--------|--------|--------|--------|--------|--------||||--------|--------|--------|--------|BBBBBBBB|--------|--------|BBBB----|--------|--------|--------|--------| set
CPU_SET_HEX_STR_SIZE: 257, Size of mstr: 257
cpu-bind=MASK - cn1340, task 29 13 [1207140]: mask |--------|--------|--------|--------|--------|--------|--------|--------|--------|--------|--------|--------||||--------|--------|BBBBBBBB|--------|--------|--------|--------|----BBBB|--------|--------|--------|--------| set
CPU_SET_HEX_STR_SIZE: 257, Size of mstr: 257
cpu-bind=MASK - cn1340, task 30 14 [1207141]: mask |--------|--------|--------|--------|--------|--------|--------|--------|--------|--------|--------|--------||||--------|--------|--------|--------|--------|BBBB----|--------|--------|--------|--------|--------|BBBBBBBB| set
CPU_SET_HEX_STR_SIZE: 257, Size of mstr: 257
cpu-bind=MASK - cn1340, task 31 15 [1207142]: mask |--------|--------|--------|--------|--------|--------|--------|--------|--------|--------|--------|--------||||--------|--------|--------|--------|--------|----BBBB|--------|--------|BBBBBBBB|--------|--------|--------| set
 DBCSR| CPU Multiplication driver                                           XSMM (U)
 DBCSR| Multrec recursion limit                                              512 (U)
 DBCSR| Multiplication stack size                                           1000 (D)
 DBCSR| Maximum elements for images                                    UNLIMITED (U)
 DBCSR| Multiplicative factor virtual images                                   1 (U)
 DBCSR| Use multiplication densification                                       T (D)
 DBCSR| Multiplication size stacks                                             3 (U)
 DBCSR| Use memory pool for CPU allocation                                     F (U)
 DBCSR| Number of 3D layers                                               SINGLE (U)
 DBCSR| Use MPI memory allocation                                              F (U)
 DBCSR| Use RMA algorithm                                                      F (U)
 DBCSR| Use Communication thread                                               T (U)
 DBCSR| Communication thread load                                             45 (D)
 DBCSR| MPI: My process id                                                     0
 DBCSR| MPI: Number of processes                                              32
 DBCSR| OMP: Current number of threads                                        12
 DBCSR| OMP: Max number of threads                                            12
 DBCSR| Split modifier for TAS multiplication algorithm                  1.0E+00 (U)


  **** **** ******  **  PROGRAM STARTED AT               2026-09-30 15:49:12.795
 ***** ** ***  *** **   PROGRAM STARTED ON                                cn1336
 **    ****   ******    PROGRAM STARTED BY                              metdyn07
 ***** **    ** ** **   PROGRAM PROCESS ID                               1247252
  **** **  *******  **  PROGRAM STARTED IN /scratch/hpc-prf-metdyn/metdyn07_Rita
                                           j/project-max-rtbse/g0w0_rtbse_compar
                                           ison_tuned/2/rirs_opt/gterm

 CP2K| version string:                 CP2K version 2026.2 (Development Version)
 CP2K| source code revision number:                                   0005d2399e
 CP2K| cp2kflags: omp libint fftw3 libxc elpa parallel scalapack mpi_f08 cosma l
 CP2K|            ibxs libxsmm plumed2 spglib openblas sirius libvori libbqb lib
 CP2K|            bvdwxc hdf5 greenx
 CP2K| is freely available from                            https://www.cp2k.org/
 CP2K| Program compiled at                                   2026-09-14 14:10:14
 CP2K| Program compiled on                                                login4
 CP2K| Program compiled for                                               x86_64
 CP2K| Data directory path    /pc2/groups/hpc-prf-metdyn/metdyn07_Ritaj/implemen
 CP2K| Input file name                                                 input.inp

 GLOBAL| Force Environment number                                              1
 GLOBAL| Basis set file name             BASIS_GTH_MOLOPT_AUG_for_excited_states
 GLOBAL| Potential file name                                      GTH_POTENTIALS
 GLOBAL| MM Potential file name                                     MM_POTENTIAL
 GLOBAL| Coordinate file name                                          struc.xyz
 GLOBAL| Method name                                                        CP2K
 GLOBAL| Project name                                                      rec_4
 GLOBAL| Run type                                                 RT_PROPAGATION
 GLOBAL| FFT library                                                       FFTW3
 GLOBAL| Diagonalization library                                            ELPA
 GLOBAL| Cholesky decomposition library                                ScaLAPACK
 GLOBAL| DGEMM library                                                      BLAS
 GLOBAL| Minimum number of eigenvectors for ELPA usage                        64
 GLOBAL| Orthonormality check for eigenvectors                          DISABLED
 GLOBAL| Matrix multiplication library                                     COSMA
 GLOBAL| All-to-all communication in single precision                          F
 GLOBAL| Grid backend                                                       AUTO
 GLOBAL| Global print level                                               MEDIUM
 GLOBAL| MPI I/O enabled                                                       T
 GLOBAL| Total number of message passing processes                            32
 GLOBAL| Number of distributed systems (nodes)                                 2
 GLOBAL| Number of threads for this process                                   12
 GLOBAL| This output is from process                                           0
 GLOBAL| OpenMP stack size per thread (OMP_STACKSIZE)                    default
 GLOBAL| CPU model name                          AMD EPYC 9655 96-Core Processor
 GLOBAL| CPUID                                                              1003
 GLOBAL| Compiled for CPUID                                                    0

 *** HINT in environment.F:968 :: The compiler target (generic) used to ***
 *** build this binary does not enable all instruction-set extensions   ***
 *** available on this CPU (x86_avx512). Consider reconfiguring and     ***
 *** rebuilding CP2K for this target system to enable them.             ***


 MEMORY| system memory details [Kb]
 MEMORY|                        rank 0           min           max       average
 MEMORY| MemTotal            791030280     791030280     791033892     791032086
 MEMORY| MemFree             756009568     754434300     756009568     755221934
 MEMORY| Buffers                     0             0          2140          1070
 MEMORY| Cached                6578120       6578120       6626648       6602384
 MEMORY| Slab                  2448636       2448636       2590180       2519408
 MEMORY| SReclaimable           902940        902940        970048        936494
 MEMORY| MemLikelyFree       763490628     762033136     763490628     762761882


 *** Fundamental physical constants (SI units) ***

 *** Literature: B. J. Mohr and B. N. Taylor,
 ***             CODATA recommended values of the fundamental physical
 ***             constants: 2006, Web Version 5.1
 ***             http://physics.nist.gov/constants

 Speed of light in vacuum [m/s]                             2.99792458000000E+08
 Magnetic constant or permeability of vacuum [N/A**2]       1.25663706143592E-06
 Electric constant or permittivity of vacuum [F/m]          8.85418781762039E-12
 Planck constant (h) [J*s]                                  6.62606896000000E-34
 Planck constant (h-bar) [J*s]                              1.05457162825177E-34
 Elementary charge [C]                                      1.60217648700000E-19
 Electron mass [kg]                                         9.10938215000000E-31
 Electron g factor [ ]                                     -2.00231930436220E+00
 Proton mass [kg]                                           1.67262163700000E-27
 Fine-structure constant                                    7.29735253760000E-03
 Rydberg constant [1/m]                                     1.09737315685270E+07
 Avogadro constant [1/mol]                                  6.02214179000000E+23
 Boltzmann constant [J/K]                                   1.38065040000000E-23
 Atomic mass unit [kg]                                      1.66053878200000E-27
 Bohr radius [m]                                            5.29177208590000E-11

 *** Conversion factors ***

 [u] -> [a.u.]                                              1.82288848426455E+03
 [Angstrom] -> [Bohr] = [a.u.]                              1.88972613288564E+00
 [a.u.] = [Bohr] -> [Angstrom]                              5.29177208590000E-01
 [a.u.] -> [s]                                              2.41888432650478E-17
 [a.u.] -> [fs]                                             2.41888432650478E-02
 [a.u.] -> [J]                                              4.35974393937059E-18
 [a.u.] -> [N]                                              8.23872205491840E-08
 [a.u.] -> [K]                                              3.15774647902944E+05
 [a.u.] -> [kJ/mol]                                         2.62549961709828E+03
 [a.u.] -> [kcal/mol]                                       6.27509468713739E+02
 [a.u.] -> [Pa]                                             2.94210107994716E+13
 [a.u.] -> [bar]                                            2.94210107994716E+08
 [a.u.] -> [atm]                                            2.90362800883016E+08
 [a.u.] -> [eV]                                             2.72113838565563E+01
 [a.u.] -> [Hz]                                             6.57968392072181E+15
 [a.u.] -> [1/cm] (wave numbers)                            2.19474631370540E+05
 [a.u./Bohr**2] -> [1/cm]                                   5.14048714338585E+03
 

 CELL| Volume [angstrom^3]:                                          4273.305960
 CELL| Vector a [angstrom]:      19.190     0.000     0.000   |a| =    19.190000
 CELL| Vector b [angstrom]:       0.000    19.280     0.000   |b| =    19.280000
 CELL| Vector c [angstrom]:       0.000     0.000    11.550   |c| =    11.550000
 CELL| Angle (b,c), alpha [degree]:                                    90.000000
 CELL| Angle (a,c), beta  [degree]:                                    90.000000
 CELL| Angle (a,b), gamma [degree]:                                    90.000000
 CELL| Numerically orthorhombic:                                             YES
 CELL| Periodicity                                                          NONE

 CELL_REF| Volume [angstrom^3]:                                      4273.305960
 CELL_REF| Vector a [angstrom    19.190     0.000     0.000   |a| =    19.190000
 CELL_REF| Vector b [angstrom     0.000    19.280     0.000   |b| =    19.280000
 CELL_REF| Vector c [angstrom     0.000     0.000    11.550   |c| =    11.550000
 CELL_REF| Angle (b,c), alpha [degree]:                                90.000000
 CELL_REF| Angle (a,c), beta  [degree]:                                90.000000
 CELL_REF| Angle (a,b), gamma [degree]:                                90.000000
 CELL_REF| Numerically orthorhombic:                                         YES
 CELL_REF| Periodicity                                                      NONE

 GENERATE|  Preliminary Number of Bonds generated:                             0
 GENERATE|  Achieved consistency in connectivity generation.

 *******************************************************************************
 *******************************************************************************
 **                                                                           **
 **     #####                         ##              ##                      **
 **    ##   ##            ##          ##              ##                      **
 **   ##     ##                       ##            ######                    **
 **   ##     ##  ##   ##  ##   #####  ##  ##   ####   ##    #####    #####    **
 **   ##     ##  ##   ##  ##  ##      ## ##   ##      ##   ##   ##  ##   ##   **
 **   ##  ## ##  ##   ##  ##  ##      ####     ###    ##   ######   ######    **
 **    ##  ###   ##   ##  ##  ##      ## ##      ##   ##   ##       ##        **
 **     #######   #####   ##   #####  ##  ##  ####    ##    #####   ##        **
 **           ##                                                    ##        **
 **                                                                           **
 **                                                ... make the atoms dance   **
 **                                                                           **
 **            Copyright (C) by CP2K developers group (2000-2026)             **
 **                      J. Chem. Phys. 152, 194103 (2020)                    **
 **                                                                           **
 *******************************************************************************

 DFT| Spin restricted Kohn-Sham (RKS) calculation                            RKS
 DFT| Multiplicity                                                             1
 DFT| Number of spin states                                                    1
 DFT| Charge                                                                   0
 DFT| Self-interaction correction (SIC)                                       NO
 DFT| Cutoffs: density                                              1.000000E-10
 DFT|          gradient                                             1.000000E-10
 DFT|          tau                                                  1.000000E-10
 DFT|          cutoff_smoothing_range                               0.000000E+00
 DFT| XC density smoothing                                                  NONE
 DFT| XC derivatives                                                          PW

 FUNCTIONAL| PBE:
 FUNCTIONAL| J.P.Perdew, K.Burke, M.Ernzerhof, Phys. Rev. Letter, vol. 77, n 18,
 FUNCTIONAL|  pp. 3865-3868, (1996) {spin unpolarized}                          


 QS| Method:                                                                 GPW
 QS| Density plane wave grid type                        NON-SPHERICAL FULLSPACE
 QS| Number of grid levels:                                                    4
 QS| Density cutoff [a.u.]:                                                300.0
 QS| Multi grid cutoff [a.u.]: 1) grid level                               300.0
 QS|                           2) grid level                               100.0
 QS|                           3) grid level                                33.3
 QS|                           4) grid level                                11.1
 QS| Grid level progression factor:                                          3.0
 QS| Relative density cutoff [a.u.]:                                        30.0
 QS| Interaction thresholds: eps_pgf_orb:                                3.2E-08
 QS|                         eps_filter_matrix:                          0.0E+00
 QS|                         eps_core_charge:                            1.0E-17
 QS|                         eps_rho_gspace:                             1.0E-15
 QS|                         eps_rho_rspace:                             1.0E-15
 QS|                         eps_gvg_rspace:                             3.2E-08
 QS|                         eps_ppl:                                    1.0E-02
 QS|                         eps_ppnl:                                   3.2E-10


 ATOMIC KIND INFORMATION

  1. Atomic kind: C                                     Number of atoms:      28

     Orbital Basis Set                                 aug-SZV-MOLOPT-GTH-tier-2

       Number of orbital shell sets:                                           1
       Number of orbital shells:                                               5
       Number of primitive Cartesian functions:                                6
       Number of Cartesian basis functions:                                   14
       Number of spherical basis functions:                                   13
       Norm type:                                                              2

       Normalised Cartesian orbitals:

                        Set   Shell   Orbital            Exponent    Coefficient

                          1       1    2s                0.070000       0.000000
                                                         0.128212      -0.022789
                                                         0.348157      -0.219794
                                                         0.769911      -0.209686
                                                         2.113016       0.213043
                                                         5.605331       0.322515

                          1       2    3s                0.070000       0.133509
                                                         0.128212      -0.041206
                                                         0.348157      -0.081784
                                                         0.769911      -0.003005
                                                         2.113016       0.000000
                                                         5.605331       0.000000

                          1       3    3px               0.070000       0.000000
                                                         0.128212      -0.027849
                                                         0.348157      -0.139743
                                                         0.769911      -0.374851
                                                         2.113016      -0.642521
                                                         5.605331      -0.703879
                          1       3    3py               0.070000       0.000000
                                                         0.128212      -0.027849
                                                         0.348157      -0.139743
                                                         0.769911      -0.374851
                                                         2.113016      -0.642521
                                                         5.605331      -0.703879
                          1       3    3pz               0.070000       0.000000
                                                         0.128212      -0.027849
                                                         0.348157      -0.139743
                                                         0.769911      -0.374851
                                                         2.113016      -0.642521
                                                         5.605331      -0.703879

                          1       4    4px               0.070000       0.033242
                                                         0.128212       0.023307
                                                         0.348157       0.113522
                                                         0.769911      -0.094955
                                                         2.113016       0.000000
                                                         5.605331       0.000000
                          1       4    4py               0.070000       0.033242
                                                         0.128212       0.023307
                                                         0.348157       0.113522
                                                         0.769911      -0.094955
                                                         2.113016       0.000000
                                                         5.605331       0.000000
                          1       4    4pz               0.070000       0.033242
                                                         0.128212       0.023307
                                                         0.348157       0.113522
                                                         0.769911      -0.094955
                                                         2.113016       0.000000
                                                         5.605331       0.000000

                          1       5    4dx2              0.070000      -0.000111
                                                         0.128212       0.037828
                                                         0.348157       0.043639
                                                         0.769911       0.120124
                                                         2.113016       0.000000
                                                         5.605331       0.000000
                          1       5    4dxy              0.070000      -0.000193
                                                         0.128212       0.065520
                                                         0.348157       0.075585
                                                         0.769911       0.208061
                                                         2.113016       0.000000
                                                         5.605331       0.000000
                          1       5    4dxz              0.070000      -0.000193
                                                         0.128212       0.065520
                                                         0.348157       0.075585
                                                         0.769911       0.208061
                                                         2.113016       0.000000
                                                         5.605331       0.000000
                          1       5    4dy2              0.070000      -0.000111
                                                         0.128212       0.037828
                                                         0.348157       0.043639
                                                         0.769911       0.120124
                                                         2.113016       0.000000
                                                         5.605331       0.000000
                          1       5    4dyz              0.070000      -0.000193
                                                         0.128212       0.065520
                                                         0.348157       0.075585
                                                         0.769911       0.208061
                                                         2.113016       0.000000
                                                         5.605331       0.000000
                          1       5    4dz2              0.070000      -0.000111
                                                         0.128212       0.037828
                                                         0.348157       0.043639
                                                         0.769911       0.120124
                                                         2.113016       0.000000
                                                         5.605331       0.000000

     RI Auxiliary Basis Set             RI_aug-SZV-MOLOPT-GTH-tier-2_N_RI_030_s_

       Number of orbital shell sets:                                          10
       Number of orbital shells:                                              10
       Number of primitive Cartesian functions:                               10
       Number of Cartesian basis functions:                                   35
       Number of spherical basis functions:                                   30
       Norm type:                                                              2

       Normalised Cartesian orbitals:

                        Set   Shell   Orbital            Exponent    Coefficient

                          1       1    1s                0.191848       0.206599

                          2       1    2s                0.736300       0.566502

                          3       1    3s                2.917592       1.591031

                          4       1    4s                9.448168       3.840792

                          5       1    5px               0.281885       0.292772
                          5       1    5py               0.281885       0.292772
                          5       1    5pz               0.281885       0.292772

                          6       1    6px               0.984576       1.397983
                          6       1    6py               0.984576       1.397983
                          6       1    6pz               0.984576       1.397983

                          7       1    7px               2.475409       4.425871
                          7       1    7py               2.475409       4.425871
                          7       1    7pz               2.475409       4.425871

                          8       1    8dx2              0.347629       0.259037
                          8       1    8dxy              0.347629       0.448666
                          8       1    8dxz              0.347629       0.448666
                          8       1    8dy2              0.347629       0.259037
                          8       1    8dyz              0.347629       0.448666
                          8       1    8dz2              0.347629       0.259037

                          9       1    9dx2              1.822216       4.703911
                          9       1    9dxy              1.822216       8.147414
                          9       1    9dxz              1.822216       8.147414
                          9       1    9dy2              1.822216       4.703911
                          9       1    9dyz              1.822216       8.147414
                          9       1    9dz2              1.822216       4.703911

                         10       1   10fx3              0.497967       0.306659
                         10       1   10fx2y             0.497967       0.685710
                         10       1   10fx2z             0.497967       0.685710
                         10       1   10fxy2             0.497967       0.685710
                         10       1   10fxyz             0.497967       1.187685
                         10       1   10fxz2             0.497967       0.685710
                         10       1   10fy3              0.497967       0.306659
                         10       1   10fy2z             0.497967       0.685710
                         10       1   10fyz2             0.497967       0.685710
                         10       1   10fz3              0.497967       0.306659

       Atomic covalent radius [Angstrom]:                                  0.770

       Atomic van der Waals radius [Angstrom]:                             1.700

     GTH Potential information for                                    GTH-PBE-q4

       Description:                       Goedecker-Teter-Hutter pseudopotential
                                           Goedecker et al., PRB 54, 1703 (1996)
                                          Hartwigsen et al., PRB 58, 3641 (1998)
                                                      Krack, TCA 114, 145 (2005)

       Gaussian exponent of the core charge distribution:               4.364419
       Electronic configuration (s p d ...):                               2   2

       Parameters of the local part of the GTH pseudopotential:

                          rloc        C1          C2          C3          C4
                        0.338471   -8.803674    1.339211

       Parameters of the non-local part of the GTH pseudopotential:

                   l      r(l)      h(i,j,l)

                   0    0.302576    9.622487
                   1    0.291507

  2. Atomic kind: H                                     Number of atoms:      16

     Orbital Basis Set                                 aug-SZV-MOLOPT-GTH-tier-2

       Number of orbital shell sets:                                           1
       Number of orbital shells:                                               4
       Number of primitive Cartesian functions:                                7
       Number of Cartesian basis functions:                                    6
       Number of spherical basis functions:                                    6
       Norm type:                                                              2

       Normalised Cartesian orbitals:

                        Set   Shell   Orbital            Exponent    Coefficient

                          1       1    2s                0.050000       0.000000
                                                         0.082193      -0.014019
                                                         0.239116      -0.107525
                                                         0.450000       0.000000
                                                         0.791502      -0.258419
                                                         2.680223      -0.177618
                                                        10.068468      -0.133023

                          1       2    3s                0.050000       0.064974
                                                         0.082193       0.029198
                                                         0.239116      -0.007574
                                                         0.450000      -0.090795
                                                         0.791502      -0.025739
                                                         2.680223       0.000002
                                                        10.068468       0.000000

                          1       3    4s                0.050000      -0.067626
                                                         0.082193       0.244167
                                                         0.239116      -0.094768
                                                         0.450000      -0.043967
                                                         0.791502      -0.043572
                                                         2.680223      -0.153771
                                                        10.068468       0.000000

                          1       4    3px               0.050000       0.038628
                                                         0.082193      -0.015554
                                                         0.239116       0.034455
                                                         0.450000       0.013474
                                                         0.791502      -0.005076
                                                         2.680223       0.028739
                                                        10.068468       0.000000
                          1       4    3py               0.050000       0.038628
                                                         0.082193      -0.015554
                                                         0.239116       0.034455
                                                         0.450000       0.013474
                                                         0.791502      -0.005076
                                                         2.680223       0.028739
                                                        10.068468       0.000000
                          1       4    3pz               0.050000       0.038628
                                                         0.082193      -0.015554
                                                         0.239116       0.034455
                                                         0.450000       0.013474
                                                         0.791502      -0.005076
                                                         2.680223       0.028739
                                                        10.068468       0.000000

     RI Auxiliary Basis Set             RI_aug-SZV-MOLOPT-GTH-tier-2_N_RI_005_s_

       Number of orbital shell sets:                                           3
       Number of orbital shells:                                               3
       Number of primitive Cartesian functions:                                3
       Number of Cartesian basis functions:                                    5
       Number of spherical basis functions:                                    5
       Norm type:                                                              2

       Normalised Cartesian orbitals:

                        Set   Shell   Orbital            Exponent    Coefficient

                          1       1    1s                0.184491       0.200628

                          2       1    2s                3.030559       1.637013

                          3       1    3px               0.610174       0.768701
                          3       1    3py               0.610174       0.768701
                          3       1    3pz               0.610174       0.768701

       Atomic covalent radius [Angstrom]:                                  0.320

       Atomic van der Waals radius [Angstrom]:                             1.090

     GTH Potential information for                                    GTH-PBE-q1

       Description:                       Goedecker-Teter-Hutter pseudopotential
                                           Goedecker et al., PRB 54, 1703 (1996)
                                          Hartwigsen et al., PRB 58, 3641 (1998)
                                                      Krack, TCA 114, 145 (2005)

       Gaussian exponent of the core charge distribution:              12.500000
       Electronic configuration (s p d ...):                                   1

       Parameters of the local part of the GTH pseudopotential:

                          rloc        C1          C2          C3          C4
                        0.200000   -4.178900    0.724463


 MOLECULE KIND INFORMATION


 All atoms are their own molecule, skipping detailed information


 TOTAL NUMBERS AND MAXIMUM NUMBERS

  Total number of            - Atomic kinds:                                   2
                             - Atoms:                                         44
                             - Shell sets:                                    44
                             - Shells:                                       204
                             - Primitive Cartesian functions:                280
                             - Cartesian basis functions:                    488
                             - Spherical basis functions:                    460

  Maximum angular momentum of- Orbital basis functions:                        2
                             - Local part of the GTH pseudopotential:          2
                             - Non-local part of the GTH pseudopotential:      0


 MODULE QUICKSTEP: ATOMIC COORDINATES IN ANGSTROM

   Atom Kind Element         X             Y             Z       Z(eff)     Mass
      1    1 C     6      5.959983      8.187147      5.775000   4.0000  12.0107
      2    1 C     6      7.154329      8.921618      5.775000   4.0000  12.0107
      3    1 C     6      8.371477      8.217393      5.775000   4.0000  12.0107
      4    1 C     6      9.595000      8.930578      5.775000   4.0000  12.0107
      5    1 C     6     10.818523      8.217393      5.775000   4.0000  12.0107
      6    1 C     6     12.035671      8.921618      5.775000   4.0000  12.0107
      7    1 C     6     13.230017      8.187147      5.775000   4.0000  12.0107
      8    1 C     6      5.959983     11.092853      5.775000   4.0000  12.0107
      9    1 C     6      5.959983     12.451207      5.775000   4.0000  12.0107
     10    1 C     6      7.154329     10.358382      5.775000   4.0000  12.0107
     11    1 C     6      8.371477     11.062607      5.775000   4.0000  12.0107
     12    1 C     6      9.595000     10.349423      5.775000   4.0000  12.0107
     13    1 C     6     10.818523     11.062607      5.775000   4.0000  12.0107
     14    1 C     6     12.035671     10.358382      5.775000   4.0000  12.0107
     15    1 C     6     13.230017     11.092853      5.775000   4.0000  12.0107
     16    1 C     6     13.230017     12.451207      5.775000   4.0000  12.0107
     17    2 H     1      4.998191      6.309026      5.775000   1.0000   1.0079
     18    2 H     1      4.998191      8.706915      5.775000   1.0000   1.0079
     19    2 H     1     14.191809      6.309026      5.775000   1.0000   1.0079
     20    2 H     1     14.191809      8.706915      5.775000   1.0000   1.0079
     21    2 H     1      4.998191     10.573085      5.775000   1.0000   1.0079
     22    2 H     1      4.998191     12.970974      5.775000   1.0000   1.0079
     23    2 H     1     14.191809     10.573085      5.775000   1.0000   1.0079
     24    2 H     1     14.191809     12.970974      5.775000   1.0000   1.0079
     25    1 C     6      5.959983      6.828793      5.775000   4.0000  12.0107
     26    1 C     6     13.230017      6.828793      5.775000   4.0000  12.0107
     27    1 C     6      7.154329      6.094323      5.775000   4.0000  12.0107
     28    1 C     6      8.371477      6.798548      5.775000   4.0000  12.0107
     29    1 C     6      9.595000      6.085363      5.775000   4.0000  12.0107
     30    1 C     6     10.818523      6.798548      5.775000   4.0000  12.0107
     31    1 C     6     12.035671      6.094323      5.775000   4.0000  12.0107
     32    1 C     6      7.154329     13.185677      5.775000   4.0000  12.0107
     33    1 C     6      8.371477     12.481452      5.775000   4.0000  12.0107
     34    1 C     6      9.595000     13.194637      5.775000   4.0000  12.0107
     35    1 C     6     10.818523     12.481452      5.775000   4.0000  12.0107
     36    1 C     6     12.035671     13.185677      5.775000   4.0000  12.0107
     37    2 H     1      7.154329      5.001073      5.775000   1.0000   1.0079
     38    2 H     1      9.595000      5.312318      6.548044   1.0000   1.0079
     39    2 H     1      9.595000      5.312318      5.001956   1.0000   1.0079
     40    2 H     1     12.035671      5.001073      5.775000   1.0000   1.0079
     41    2 H     1      7.154329     14.278927      5.775000   1.0000   1.0079
     42    2 H     1      9.595000     13.967682      6.548044   1.0000   1.0079
     43    2 H     1      9.595000     13.967682      5.001956   1.0000   1.0079
     44    2 H     1     12.035671     14.278927      5.775000   1.0000   1.0079



 SCF PARAMETERS         Density guess:                                   RESTART
                        --------------------------------------------------------
                        max_scf:                                             300
                        max_scf_history:                                       0
                        max_diis:                                              4
                        --------------------------------------------------------
                        eps_scf:                                        1.00E-07
                        eps_scf_history:                                0.00E+00
                        eps_diis:                                       1.00E-01
                        eps_eigval:                                     1.00E-05
                        --------------------------------------------------------
                        level_shift [a.u.]:                             0.000000
                        SCF update method:                                MIXING
                        added MOs                                       100    0
                        --------------------------------------------------------
                        Mixing method:                            BROYDEN_MIXING
                                                charge density mixing in g-space
                        --------------------------------------------------------
                        No outer SCF

 PW_GRID| Information for grid number                                          1
 PW_GRID| Grid distributed over                                    32 processors
 PW_GRID| Real space group dimensions                                    32    1
 PW_GRID| the grid is blocked:                                                NO
 PW_GRID| Cutoff [a.u.]                                                    300.0
 PW_GRID| spherical cutoff:                                                   NO
 PW_GRID|   Bounds   1           -144     143                Points:         288
 PW_GRID|   Bounds   2           -144     143                Points:         288
 PW_GRID|   Bounds   3            -90      89                Points:         180
 PW_GRID| Volume element (a.u.^3)  0.1932E-02     Volume (a.u.^3)     28837.6984
 PW_GRID| Grid span                                                    FULLSPACE
 PW_GRID|   Distribution                         Average         Max         Min
 PW_GRID|   G-Vectors                           466560.0      466560      466560
 PW_GRID|   G-Rays                                1620.0        1620        1620
 PW_GRID|   Real Space Points                   466560.0      466560      466560

 PW_GRID| Information for grid number                                          2
 PW_GRID| Number of the reference grid                                         1
 PW_GRID| Grid distributed over                                    32 processors
 PW_GRID| Real space group dimensions                                    32    1
 PW_GRID| the grid is blocked:                                                NO
 PW_GRID| Cutoff [a.u.]                                                    100.0
 PW_GRID| spherical cutoff:                                                   NO
 PW_GRID|   Bounds   1            -90      89                Points:         180
 PW_GRID|   Bounds   2            -90      89                Points:         180
 PW_GRID|   Bounds   3            -50      49                Points:         100
 PW_GRID| Volume element (a.u.^3)  0.8901E-02     Volume (a.u.^3)     28837.6984
 PW_GRID| Grid span                                                    FULLSPACE
 PW_GRID|   Distribution                         Average         Max         Min
 PW_GRID|   G-Vectors                           101250.0      102780      100080
 PW_GRID|   G-Rays                                 562.5         571         556
 PW_GRID|   Real Space Points                   101250.0      108000       90000

 PW_GRID| Information for grid number                                          3
 PW_GRID| Number of the reference grid                                         1
 PW_GRID| Grid distributed over                                    32 processors
 PW_GRID| Real space group dimensions                                    32    1
 PW_GRID| the grid is blocked:                                                NO
 PW_GRID| Cutoff [a.u.]                                                     33.3
 PW_GRID| spherical cutoff:                                                   NO
 PW_GRID|   Bounds   1            -48      47                Points:          96
 PW_GRID|   Bounds   2            -48      47                Points:          96
 PW_GRID|   Bounds   3            -30      29                Points:          60
 PW_GRID| Volume element (a.u.^3)  0.5215E-01     Volume (a.u.^3)     28837.6984
 PW_GRID| Grid span                                                    FULLSPACE
 PW_GRID|   Distribution                         Average         Max         Min
 PW_GRID|   G-Vectors                            17280.0       17664       16800
 PW_GRID|   G-Rays                                 180.0         184         175
 PW_GRID|   Real Space Points                    17280.0       17280       17280

 PW_GRID| Information for grid number                                          4
 PW_GRID| Number of the reference grid                                         1
 PW_GRID| Grid distributed over                                    32 processors
 PW_GRID| Real space group dimensions                                    32    1
 PW_GRID| the grid is blocked:                                                NO
 PW_GRID| Cutoff [a.u.]                                                     11.1
 PW_GRID| spherical cutoff:                                                   NO
 PW_GRID|   Bounds   1            -30      29                Points:          60
 PW_GRID|   Bounds   2            -30      29                Points:          60
 PW_GRID|   Bounds   3            -18      17                Points:          36
 PW_GRID| Volume element (a.u.^3)  0.2225         Volume (a.u.^3)     28837.6984
 PW_GRID| Grid span                                                    FULLSPACE
 PW_GRID|   Distribution                         Average         Max         Min
 PW_GRID|   G-Vectors                             4050.0        4440        3600
 PW_GRID|   G-Rays                                  67.5          74          60
 PW_GRID|   Real Space Points                     4050.0        4320        2160

 POISSON| Solver                                             MULTIPOLE (Bloechl)
 POISSON| Periodicity                                                       NONE

 RS_GRID| Information for grid number                                          1
 RS_GRID|   Bounds   1           -144     143                Points:         288
 RS_GRID|   Bounds   2           -144     143                Points:         288
 RS_GRID|   Bounds   3            -90      89                Points:         180
 RS_GRID| Real space distribution over                                  4 groups
 RS_GRID| Real space distribution along direction                              1
 RS_GRID| Border size                                                         30
 RS_GRID| Real space distribution over                                  8 groups
 RS_GRID| Real space distribution along direction                              2
 RS_GRID| Border size                                                         30
 RS_GRID|   Distribution                         Average         Max         Min
 RS_GRID|   Planes                                 132.0         132         132
 RS_GRID|   Distribution                         Average         Max         Min
 RS_GRID|   Planes                                  96.0          96          96

 RS_GRID| Information for grid number                                          2
 RS_GRID|   Bounds   1            -90      89                Points:         180
 RS_GRID|   Bounds   2            -90      89                Points:         180
 RS_GRID|   Bounds   3            -50      49                Points:         100
 RS_GRID| Real space distribution over                                  4 groups
 RS_GRID| Real space distribution along direction                              1
 RS_GRID| Border size                                                         33
 RS_GRID| Real space distribution over                                  8 groups
 RS_GRID| Real space distribution along direction                              2
 RS_GRID| Border size                                                         33
 RS_GRID|   Distribution                         Average         Max         Min
 RS_GRID|   Planes                                 111.0         111         111
 RS_GRID|   Distribution                         Average         Max         Min
 RS_GRID|   Planes                                  88.5          89          88

 RS_GRID| Information for grid number                                          3
 RS_GRID|   Bounds   1            -48      47                Points:          96
 RS_GRID|   Bounds   2            -48      47                Points:          96
 RS_GRID|   Bounds   3            -30      29                Points:          60
 RS_GRID| Real space fully replicated
 RS_GRID| Group size                                                           1

 RS_GRID| Information for grid number                                          4
 RS_GRID|   Bounds   1            -30      29                Points:          60
 RS_GRID|   Bounds   2            -30      29                Points:          60
 RS_GRID|   Bounds   3            -18      17                Points:          36
 RS_GRID| Real space fully replicated
 RS_GRID| Group size                                                           1

 *** WARNING in emd/rt_bse_linearized.F:131 :: Linearized RT-BSE is under ***
 *** active development. Make sure you understand the method and validate ***
 *** results before using it for production calculations.                 ***


 Extrapolation method: initial_guess

 *** WARNING in qs_initial_guess.F:312 :: User requested to restart the    ***
 *** wavefunction from the file named: rec_4-RESTART.wfn. This file does   ***
 *** not exist. Please check the existence of the file or change properly  ***
 *** the value of the keyword WFN_RESTART_FILE_NAME. Calculation continues ***
 *** using ATOMIC GUESS.                                                   ***


 Atomic guess: The first density matrix is obtained in terms of atomic orbitals
               and electronic configurations assigned to each atomic kind

 Guess for atomic kind: C

 Electronic structure
    Total number of core electrons                                          2.00
    Total number of valence electrons                                       4.00
    Total number of electrons                                               6.00
    Multiplicity                                                   not specified
    S   [  2.00] 2.00
    P      2.00


 *******************************************************************************
                  Iteration          Convergence                     Energy [au]
 *******************************************************************************
                          1        0.988758E-01                  -5.245867139855
                          2        0.702567E-01                  -5.249950338066
                          3        0.324324E-03                  -5.254466662830
                          4        0.763974E-05                  -5.254466744799
                          5        0.410505E-05                  -5.254466744830
                          6        0.282419E-05                  -5.254466744837
                          7        0.925356E-08                  -5.254466744843

 Energy components [Hartree]           Total Energy ::           -5.254466744843
                                        Band Energy ::           -1.295684616135
                                     Kinetic Energy ::            3.559613956185
                                   Potential Energy ::           -8.814080701028
                                      Virial (-V/T) ::            2.476133875617
                                        Core Energy ::           -8.257747528207
                                          XC Energy ::           -1.378022926287
                                     Coulomb Energy ::            4.381303709651
                       Total Pseudopotential Energy ::          -11.853169988044
                       Local Pseudopotential Energy ::          -12.322682182621
                    Nonlocal Pseudopotential Energy ::            0.469512194577
                                        Confinement ::            0.358085036523

 Orbital energies  State     L     Occupation   Energy[a.u.]          Energy[eV]

                       1     0          2.000      -0.472377          -12.854028

                       1     1          2.000      -0.175465           -4.774658


 Total Electron Density at R=0:                                         0.011027

 Guess for atomic kind: H

 Electronic structure
    Total number of core electrons                                          0.00
    Total number of valence electrons                                       1.00
    Total number of electrons                                               1.00
    Multiplicity                                                   not specified
    S      1.00


 *******************************************************************************
                  Iteration          Convergence                     Energy [au]
 *******************************************************************************
                          1        0.309524E-02                  -0.417828613492
                          2        0.397171E-03                  -0.417845979898
                          3        0.350877E-04                  -0.417846294368
                          4        0.929317E-09                  -0.417846297422

 Energy components [Hartree]           Total Energy ::           -0.417846297422
                                        Band Energy ::           -0.196148543103
                                     Kinetic Energy ::            0.486531132430
                                   Potential Energy ::           -0.904377429852
                                      Virial (-V/T) ::            1.858827461532
                                        Core Energy ::           -0.470733162945
                                          XC Energy ::           -0.242450390891
                                     Coulomb Energy ::            0.295337256414
                       Total Pseudopotential Energy ::           -0.978038883002
                       Local Pseudopotential Energy ::           -0.978038883002
                    Nonlocal Pseudopotential Energy ::            0.000000000000
                                        Confinement ::            0.207745876267

 Orbital energies  State     L     Occupation   Energy[a.u.]          Energy[eV]

                       1     0          1.000      -0.196149           -5.337473


 Total Electron Density at R=0:                                         0.282919
 Re-scaling the density matrix to get the right number of electrons
                  # Electrons              Trace(P)               Scaling factor
                          128               128.000                        1.000

 Number of electrons:                                                        128
 Number of occupied orbitals:                                                 64
 Number of molecular orbitals:                                               164

 Number of orbital functions:                                                460
 Number of independent orbital functions:                                    460


 SCF WAVEFUNCTION OPTIMIZATION

  Step     Update method      Time    Convergence         Total energy    Change
  ------------------------------------------------------------------------------
  Decoupling Energy:                                              -0.0003530753
     1 NoMix/Diag. 0.40E+00    0.2     0.94959422      -167.2524391238 -1.67E+02
  Decoupling Energy:                                              -0.0002600700
     2 Broy./Diag. 0.40E+00    0.2     0.19549663      -152.4369882619  1.48E+01
  Decoupling Energy:                                              -0.0001289152
     3 Broy./Diag. 0.40E+00    0.2     0.10028652      -163.4776475337 -1.10E+01
  Decoupling Energy:                                              -0.0000723907
     4 Broy./Diag. 0.40E+00    0.2     0.01752515      -167.9736399478 -4.50E+00
  Decoupling Energy:                                              -0.0000371094
     5 Broy./Diag. 0.40E+00    0.2     0.00567328      -168.4368313074 -4.63E-01
  Decoupling Energy:                                              -0.0000207833
     6 Broy./Diag. 0.40E+00    0.2     0.00437442      -168.4505961173 -1.38E-02
  Decoupling Energy:                                              -0.0000150558
     7 Broy./Diag. 0.40E+00    0.2     0.00366637      -168.4712105776 -2.06E-02
  Decoupling Energy:                                              -0.0000191812
     8 Broy./Diag. 0.40E+00    0.2     0.00311467      -168.6033535849 -1.32E-01
  Decoupling Energy:                                              -0.0000221869
     9 Broy./Diag. 0.40E+00    0.2     0.00168552      -168.7079208858 -1.05E-01
  Decoupling Energy:                                              -0.0000229260
    10 Broy./Diag. 0.40E+00    0.2     0.00148228      -168.7198726863 -1.20E-02
  Decoupling Energy:                                              -0.0000232373
    11 Broy./Diag. 0.40E+00    0.2     0.00185063      -168.6894852458  3.04E-02
  Decoupling Energy:                                              -0.0000235916
    12 Broy./Diag. 0.40E+00    0.3     0.00078587      -168.6820977750  7.39E-03
  Decoupling Energy:                                              -0.0000246442
    13 Broy./Diag. 0.40E+00    0.2     0.00032595      -168.6952910433 -1.32E-02
  Decoupling Energy:                                              -0.0000257946
    14 Broy./Diag. 0.40E+00    0.3     0.00018229      -168.6985671476 -3.28E-03
  Decoupling Energy:                                              -0.0000265848
    15 Broy./Diag. 0.40E+00    0.2     0.00025106      -168.6935536164  5.01E-03
  Decoupling Energy:                                              -0.0000269664
    16 Broy./Diag. 0.40E+00    0.3     0.00026281      -168.6911710602  2.38E-03
  Decoupling Energy:                                              -0.0000270751
    17 Broy./Diag. 0.40E+00    0.2     0.00013249      -168.6923773898 -1.21E-03
  Decoupling Energy:                                              -0.0000270803
    18 Broy./Diag. 0.40E+00    0.2     0.00017473      -168.6933249036 -9.48E-04
  Decoupling Energy:                                              -0.0000270528
    19 Broy./Diag. 0.40E+00    0.2     0.00017646      -168.6930445660  2.80E-04
  Decoupling Energy:                                              -0.0000270308
    20 Broy./Diag. 0.40E+00    0.2     0.00005281      -168.6927917421  2.53E-04
  Decoupling Energy:                                              -0.0000270166
    21 Broy./Diag. 0.40E+00    0.2     0.00002613      -168.6929139952 -1.22E-04
  Decoupling Energy:                                              -0.0000270179
    22 Broy./Diag. 0.40E+00    0.2     0.00001160      -168.6931289574 -2.15E-04
  Decoupling Energy:                                              -0.0000270373
    23 Broy./Diag. 0.40E+00    0.2     0.00001446      -168.6932784787 -1.50E-04
  Decoupling Energy:                                              -0.0000270632
    24 Broy./Diag. 0.40E+00    0.2     0.00001021      -168.6933503625 -7.19E-05
  Decoupling Energy:                                              -0.0000270884
    25 Broy./Diag. 0.40E+00    0.2     0.00001137      -168.6933629012 -1.25E-05
  Decoupling Energy:                                              -0.0000271046
    26 Broy./Diag. 0.40E+00    0.2     0.00000549      -168.6933680355 -5.13E-06
  Decoupling Energy:                                              -0.0000271111
    27 Broy./Diag. 0.40E+00    0.2     0.00000480      -168.6933817795 -1.37E-05
  Decoupling Energy:                                              -0.0000271132
    28 Broy./Diag. 0.40E+00    0.2     0.00000457      -168.6933936867 -1.19E-05
  Decoupling Energy:                                              -0.0000271136
    29 Broy./Diag. 0.40E+00    0.2     0.00000286      -168.6933872542  6.43E-06
  Decoupling Energy:                                              -0.0000271134
    30 Broy./Diag. 0.40E+00    0.2     0.00000148      -168.6933770549  1.02E-05
  Decoupling Energy:                                              -0.0000271137
    31 Broy./Diag. 0.40E+00    0.2     0.00000065      -168.6933760645  9.90E-07
  Decoupling Energy:                                              -0.0000271143
    32 Broy./Diag. 0.40E+00    0.2     0.00000044      -168.6933811166 -5.05E-06
  Decoupling Energy:                                              -0.0000271149
    33 Broy./Diag. 0.40E+00    0.2     0.00000036      -168.6933851125 -4.00E-06
  Decoupling Energy:                                              -0.0000271153
    34 Broy./Diag. 0.40E+00    0.2     0.00000023      -168.6933855131 -4.01E-07
  Decoupling Energy:                                              -0.0000271156
    35 Broy./Diag. 0.40E+00    0.2     0.00000018      -168.6933848050  7.08E-07
  Decoupling Energy:                                              -0.0000271158
    36 Broy./Diag. 0.40E+00    0.2     0.00000012      -168.6933857131 -9.08E-07
  Decoupling Energy:                                              -0.0000271158
    37 Broy./Diag. 0.40E+00    0.2     0.00000005      -168.6933869269 -1.21E-06

  *** SCF run converged in    37 steps ***


  Electronic density on regular grids:       -128.0000000000       -0.0000000000
  Core density on regular grids:              128.0000000000       -0.0000000000
  Total charge density on r-space grids:       -0.0000000000
  Total charge density g-space grids:          -0.0000000000

  Overlap energy of the core charge distribution:               0.00001137845253
  Self energy of the core charge distribution:               -395.94780529133618
  Core Hamiltonian energy:                                    125.99066678674426
  Hartree energy:                                             156.02503707301850
  Exchange-correlation energy:                                -54.76129687377245

  Total energy:                                              -168.69338692689331

 !-----------------------------------------------------------------------------!
                     Mulliken Population Analysis

 #  Atom  Element  Kind  Atomic population                           Net charge
       1     C        1          4.158067                             -0.158067
       2     C        1          4.069412                             -0.069412
       3     C        1          3.955033                              0.044967
       4     C        1          3.959670                              0.040330
       5     C        1          3.955033                              0.044967
       6     C        1          4.069412                             -0.069412
       7     C        1          4.158067                             -0.158067
       8     C        1          4.158067                             -0.158067
       9     C        1          4.243727                             -0.243727
      10     C        1          4.069412                             -0.069412
      11     C        1          3.955033                              0.044967
      12     C        1          3.959670                              0.040330
      13     C        1          3.955033                              0.044967
      14     C        1          4.069412                             -0.069412
      15     C        1          4.158067                             -0.158067
      16     C        1          4.243727                             -0.243727
      17     H        2          0.767575                              0.232425
      18     H        2          0.799522                              0.200478
      19     H        2          0.767575                              0.232425
      20     H        2          0.799522                              0.200478
      21     H        2          0.799522                              0.200478
      22     H        2          0.767575                              0.232425
      23     H        2          0.799522                              0.200478
      24     H        2          0.767575                              0.232425
      25     C        1          4.243727                             -0.243727
      26     C        1          4.243727                             -0.243727
      27     C        1          4.197970                             -0.197970
      28     C        1          4.042609                             -0.042609
      29     C        1          4.611049                             -0.611049
      30     C        1          4.042609                             -0.042609
      31     C        1          4.197970                             -0.197970
      32     C        1          4.197970                             -0.197970
      33     C        1          4.042609                             -0.042609
      34     C        1          4.611049                             -0.611049
      35     C        1          4.042609                             -0.042609
      36     C        1          4.197970                             -0.197970
      37     H        2          0.780947                              0.219053
      38     H        2          0.699779                              0.300221
      39     H        2          0.699779                              0.300221
      40     H        2          0.780947                              0.219053
      41     H        2          0.780947                              0.219053
      42     H        2          0.699779                              0.300221
      43     H        2          0.699779                              0.300221
      44     H        2          0.780947                              0.219053
 # Total charge                            128.000000                 -0.000000

 !-----------------------------------------------------------------------------!

 !-----------------------------------------------------------------------------!
                           Hirshfeld Charges

  #Atom  Element  Kind  Ref Charge     Population                    Net charge
      1       C      1       4.000          4.454                        -0.454
      2       C      1       4.000          3.996                         0.004
      3       C      1       4.000          4.008                        -0.008
      4       C      1       4.000          4.010                        -0.010
      5       C      1       4.000          4.008                        -0.008
      6       C      1       4.000          3.996                         0.004
      7       C      1       4.000          4.454                        -0.454
      8       C      1       4.000          4.454                        -0.454
      9       C      1       4.000          4.448                        -0.448
     10       C      1       4.000          3.996                         0.004
     11       C      1       4.000          4.008                        -0.008
     12       C      1       4.000          4.010                        -0.010
     13       C      1       4.000          4.008                        -0.008
     14       C      1       4.000          3.996                         0.004
     15       C      1       4.000          4.454                        -0.454
     16       C      1       4.000          4.448                        -0.448
     17       H      2       1.000          0.551                         0.449
     18       H      2       1.000          0.555                         0.445
     19       H      2       1.000          0.551                         0.449
     20       H      2       1.000          0.555                         0.445
     21       H      2       1.000          0.555                         0.445
     22       H      2       1.000          0.551                         0.449
     23       H      2       1.000          0.555                         0.445
     24       H      2       1.000          0.551                         0.449
     25       C      1       4.000          4.448                        -0.448
     26       C      1       4.000          4.448                        -0.448
     27       C      1       4.000          4.470                        -0.470
     28       C      1       4.000          4.008                        -0.008
     29       C      1       4.000          4.783                        -0.783
     30       C      1       4.000          4.008                        -0.008
     31       C      1       4.000          4.470                        -0.470
     32       C      1       4.000          4.470                        -0.470
     33       C      1       4.000          4.008                        -0.008
     34       C      1       4.000          4.783                        -0.783
     35       C      1       4.000          4.008                        -0.008
     36       C      1       4.000          4.470                        -0.470
     37       H      2       1.000          0.549                         0.451
     38       H      2       1.000          0.553                         0.447
     39       H      2       1.000          0.553                         0.447
     40       H      2       1.000          0.549                         0.451
     41       H      2       1.000          0.549                         0.451
     42       H      2       1.000          0.553                         0.447
     43       H      2       1.000          0.553                         0.447
     44       H      2       1.000          0.549                         0.451

  Total Charge                                                            0.043
 !-----------------------------------------------------------------------------!
  
 -------------------------------------------------------------------------------
 -                                                                             -
 -                          BANDSTRUCTURE CALCULATION                          -
 -                                                                             -
 -------------------------------------------------------------------------------
  
 Number of occupied molecular orbitals (MOs) = Number of occupied bands       64
 Number of unoccupied (= virtual) MOs = Number of unoccupied bands           396
 Number of Gaussian basis functions for MOs                                  460
  
 -------------------------------------------------------------------------------
 -                                                                             -
 -                                GW CALCULATION                               -
 -                                                                             -
 -------------------------------------------------------------------------------
  
 Input: Number of time/freq. points                                           30
 Input: ω_max for fitting Σ(iω) (eV)                                        10.0
 Input: Filter threshold for sparse tensor operations                    1.0E-10
 Input: Apply Hedin shift                                                      F
 Detected: Available memory per MPI process                              39.6 GB
 
 Input: RI-RS Tikhonov regularization                                   1.00E-08
 Input: AO grid hard cutoff radius                                        7.00 Å
 Input: MPI ranks per atom in Z_lP solve                                      -1
 Input: Keep sparsity in χ/G/W panels                                          T
 Input: GW flavour                                                          G0W0
 
 Input: RI-RS grid optimization activated                                      T
 Input: Element: C, number of points per atom:                                67
 Input: Element: H, number of points per atom:                                27
 Input: Cutoff radius for atomic clusters                                  3.0 Å
 Input: Maximum grid optimization iterations                                 200
 
 Cutoff radius for the truncated Coulomb operator in RI metric:            7.0 Å
 Regularization parameter of RI                                          0.0E+00
 Regularization parameter of minimax grids                               1.0E-06
  
 Number of auxiliary Gaussian basis functions for χ, ε, W                    920
  Decoupling Energy:                                              -0.0000271162
 
 SCF direct band gap (eV)                                                   2.52
 Max. SCF eigval diff. (eV)                                               246.25
 E-Range for minimax grid                                                  97.84
 Number of Padé parameters for analytic continuation:                         16
 
 RI-RS basis radii (Å):
     Kind  Elem     r_AO (Å)     r_RI (Å)
        1    C         9.5975        5.7974
        2    H        11.3560        5.9118
 
 Started RI-RS grid optimization
 RI-RS grid optimization completed, execution time:                       96.6 s
 Normalized 3C error:                                                    1.4E-06
 Maximum absolute 3C error:                                              1.4E-02
 Total grid points used for RI-RS:                                          2308
 
 RI-RS grid row-blocks of Φ_μ(r_l)                                           100
 RI-RS grid points per block (max)                                            32
 
 Percentage of non-zero matrix elements in Φ_μ(r_l)                      93.03 %
 
 RI-RS memory estimate per MPI process:
   Available memory per process (system)                                48.15 GB
   Required for Z_lP (dense upper bound; actual is sparser)              0.00 GB
   Required for χ, W, Σ panels (peak per panel step)                     0.01 GB
   Required for Z_lP solve peak (D_local+φ, worst-case atom)             0.06 GB
   Worst-case local-grid number of grid points:                             2308
   Worst-case memory D_local:                                            0.04 GB
 
 Started computing Z_lP
 Per-kind maximum RI-RS sphere cutoff (Å):
   Kind   cutoff (Å)
     C        12.7974
     H        12.9118
 
 Computed Z_lP (MPI rank 0) for atom          1 /  2,    Execution time    0.1 s
 Computed Z_lP (MPI rank 0) for atom          2 /  2,    Execution time    0.1 s
 Computed Z_lP (all MPI ranks) for all atoms,            Execution time    0.2 s

 Memory per MPI process after computing Z_lP:
 Available memory per MPI process                               48.1 GB
 Used memory per MPI process                                     1.1 GB
 Number of batches for χ, Σ matrices                                           1
 
 Percentage of non-zero matrix elements in Z_lP                         100.00 %
 Percentage of non-zero matrix elements in G_ll', χ_ll', W_ll'          100.00 %
 Percentage of non-zero matrix elements in χ_PQ for time point 1        100.00 %
 
 Computed χ(iτ,k=0) for time point            1 / 30,    Execution time    0.1 s
 Computed χ(iτ,k=0) for time point            2 / 30,    Execution time    0.0 s
 Computed χ(iτ,k=0) for time point            3 / 30,    Execution time    0.0 s
 Computed χ(iτ,k=0) for time point            4 / 30,    Execution time    0.0 s
 Computed χ(iτ,k=0) for time point            5 / 30,    Execution time    0.0 s
 Computed χ(iτ,k=0) for time point            6 / 30,    Execution time    0.0 s
 Computed χ(iτ,k=0) for time point            7 / 30,    Execution time    0.0 s
 Computed χ(iτ,k=0) for time point            8 / 30,    Execution time    0.0 s
 Computed χ(iτ,k=0) for time point            9 / 30,    Execution time    0.0 s
 Computed χ(iτ,k=0) for time point           10 / 30,    Execution time    0.0 s
 Computed χ(iτ,k=0) for time point           11 / 30,    Execution time    0.0 s
 Computed χ(iτ,k=0) for time point           12 / 30,    Execution time    0.0 s
 Computed χ(iτ,k=0) for time point           13 / 30,    Execution time    0.0 s
 Computed χ(iτ,k=0) for time point           14 / 30,    Execution time    0.0 s
 Computed χ(iτ,k=0) for time point           15 / 30,    Execution time    0.0 s
 Computed χ(iτ,k=0) for time point           16 / 30,    Execution time    0.0 s
 Computed χ(iτ,k=0) for time point           17 / 30,    Execution time    0.0 s
 Computed χ(iτ,k=0) for time point           18 / 30,    Execution time    0.0 s
 Computed χ(iτ,k=0) for time point           19 / 30,    Execution time    0.0 s
 Computed χ(iτ,k=0) for time point           20 / 30,    Execution time    0.0 s
 Computed χ(iτ,k=0) for time point           21 / 30,    Execution time    0.0 s
 Computed χ(iτ,k=0) for time point           22 / 30,    Execution time    0.0 s
 Computed χ(iτ,k=0) for time point           23 / 30,    Execution time    0.0 s
 Computed χ(iτ,k=0) for time point           24 / 30,    Execution time    0.0 s
 Computed χ(iτ,k=0) for time point           25 / 30,    Execution time    0.0 s
 Computed χ(iτ,k=0) for time point           26 / 30,    Execution time    0.0 s
 Computed χ(iτ,k=0) for time point           27 / 30,    Execution time    0.0 s
 Computed χ(iτ,k=0) for time point           28 / 30,    Execution time    0.0 s
 Computed χ(iτ,k=0) for time point           29 / 30,    Execution time    0.0 s
 Computed χ(iτ,k=0) for time point           30 / 30,    Execution time    0.0 s
 
 Computed W(iτ),                                         Execution time    0.8 s
 Computed W(0),                                          Execution time    0.0 s
 
 Computed Σ^x(k=0),                                      Execution time    0.1 s
 
 Computed Σ^c(iτ) for time point              1 / 30,    Execution time    0.0 s
 Computed Σ^c(iτ) for time point              2 / 30,    Execution time    0.0 s
 Computed Σ^c(iτ) for time point              3 / 30,    Execution time    0.0 s
 Computed Σ^c(iτ) for time point              4 / 30,    Execution time    0.0 s
 Computed Σ^c(iτ) for time point              5 / 30,    Execution time    0.0 s
 Computed Σ^c(iτ) for time point              6 / 30,    Execution time    0.0 s
 Computed Σ^c(iτ) for time point              7 / 30,    Execution time    0.0 s
 Computed Σ^c(iτ) for time point              8 / 30,    Execution time    0.0 s
 Computed Σ^c(iτ) for time point              9 / 30,    Execution time    0.0 s
 Computed Σ^c(iτ) for time point             10 / 30,    Execution time    0.0 s
 Computed Σ^c(iτ) for time point             11 / 30,    Execution time    0.0 s
 Computed Σ^c(iτ) for time point             12 / 30,    Execution time    0.0 s
 Computed Σ^c(iτ) for time point             13 / 30,    Execution time    0.0 s
 Computed Σ^c(iτ) for time point             14 / 30,    Execution time    0.0 s
 Computed Σ^c(iτ) for time point             15 / 30,    Execution time    0.0 s
 Computed Σ^c(iτ) for time point             16 / 30,    Execution time    0.0 s
 Computed Σ^c(iτ) for time point             17 / 30,    Execution time    0.0 s
 Computed Σ^c(iτ) for time point             18 / 30,    Execution time    0.0 s
 Computed Σ^c(iτ) for time point             19 / 30,    Execution time    0.0 s
 Computed Σ^c(iτ) for time point             20 / 30,    Execution time    0.0 s
 Computed Σ^c(iτ) for time point             21 / 30,    Execution time    0.0 s
 Computed Σ^c(iτ) for time point             22 / 30,    Execution time    0.0 s
 Computed Σ^c(iτ) for time point             23 / 30,    Execution time    0.0 s
 Computed Σ^c(iτ) for time point             24 / 30,    Execution time    0.0 s
 Computed Σ^c(iτ) for time point             25 / 30,    Execution time    0.0 s
 Computed Σ^c(iτ) for time point             26 / 30,    Execution time    0.0 s
 Computed Σ^c(iτ) for time point             27 / 30,    Execution time    0.0 s
 Computed Σ^c(iτ) for time point             28 / 30,    Execution time    0.0 s
 Computed Σ^c(iτ) for time point             29 / 30,    Execution time    0.0 s
 Computed Σ^c(iτ) for time point             30 / 30,    Execution time    0.0 s
 
 SCF valence band maximum (eV):                                           -4.710
 SCF conduction band minimum (eV):                                        -2.193
 SCF indirect band gap (eV):                                               2.517
 SCF direct band gap (eV):                                                 2.517
 
 G0W0 valence band maximum (eV):                                          -5.837
 G0W0 conduction band minimum (eV):                                       -0.155
 G0W0 indirect band gap (eV):                                              5.682
 G0W0 direct band gap (eV):                                                5.682
 
 Hartree-Fock with SCF orbitals valence band maximum (eV):                -6.082
 Hartree-Fock with SCF orbitals conduction band minimum (eV)               1.968
 Hartree-Fock with SCF orbitals indirect band gap (eV):                    8.050
 Hartree-Fock with SCF orbitals direct band gap (eV):                      8.050

 ENERGY| Total FORCE_EVAL ( QS ) energy [hartree]           -168.693386926893311

 *** HINT in emd/rt_bse_linearized.F:440 :: ENFORCE_MAX_DT enabled. ***
 *** Resetting TIMESTEP to          69.8812 as and STEPS to 2862.   ***

 
 /-----------------------------------------------------------------------------\
 |                                                                             |
 |              Linearized Real Time Bethe-Salpeter Propagation                |
 |                                                                             |
 \-----------------------------------------------------------------------------/
 
 Apply delta pulse                                                             T

 Use Tamm-Dancoff                                                              T
 TDA first-peak shift active                                                   F

 Estimated maximum timestep within stability region [as]:                69.8944
 Applied timestep [as]:                                                  69.8812
 Number of propagation steps:                                               2862
 Total propagation time [as]:                                        200000.0000
 Estimated FFT frequency resolution without interpolation [eV]:         0.020678
 Nyquist frequency [eV]:                                               29.590700
 Estimated maximum oscillation frequency (gap-based) [eV]:             26.635956
 GW flavor for computing GW eigenvalues used in RT-BSE:                     G0W0
 Active-window occupied energy cutoff [eV]:                               10.000
 Active-window virtual energy cutoff [eV]:                                10.000
 First active occupied MO index:                                              21
 Last active virtual MO index:                                               158
 Number of active MOs:                                                       138
 Spin 1 first active MO, E - E_HOMO (KS) [eV]:                            -9.310
 Spin 1 last active MO, E - E_LUMO (KS) [eV]:                              9.996
 Spin 1 first active MO, E - E_HOMO (QP) [eV]:                           -10.159
 Spin 1 last active MO, E - E_LUMO (QP) [eV]:                              9.943
 Precomputed RT-BSE RI-RS V_aux kernel,                  Execution time    0.0 s
 
 W0CUT| Cutoff radius, negative = off [angstrom]                         50.0000
 W0CUT| Retained block fraction                                         1.000000
 W0CUT| Retained Frobenius norm                                   3.13997530E+05
 Precomputed RT-BSE RI-RS W0_grid kernel,                Execution time    0.0 s
 
 RTBSE| Applying delta pulse
 RTBSE| Delta pulse elements (a.u.) :   -0.0000E+000  -0.1000E-002  -0.0000E+000
 RTBSE| Metric difference after delta kick                       0.30071413E-002
 RTBSE| Estimated runtime for propagation [s]                            404.532
 RTBSE|
 RTBSE| Simulation step   Step time [s]                          Electron number
 RTBSE|               0           0.141                               0.880E+002
 RTBSE|               1           0.134                               0.880E+002
 RTBSE|               2           0.133                               0.880E+002
 RTBSE|               3           0.132                               0.880E+002
 RTBSE|               4           0.133                               0.880E+002
 RTBSE|               5           0.134                               0.880E+002
 RTBSE|               6           0.134                               0.880E+002
 RTBSE|               7           0.136                               0.880E+002
 RTBSE|               8           0.133                               0.880E+002
 RTBSE|               9           0.135                               0.880E+002
 RTBSE|              10           0.133                               0.880E+002
 RTBSE|              11           0.140                               0.880E+002
 RTBSE|              12           0.134                               0.880E+002
 RTBSE|              13           0.132                               0.880E+002
 RTBSE|              14           0.132                               0.880E+002
 RTBSE|              15           0.133                               0.880E+002
 RTBSE|              16           0.133                               0.880E+002
 RTBSE|              17           0.132                               0.880E+002
 RTBSE|              18           0.132                               0.880E+002
 RTBSE|              19           0.135                               0.880E+002
 RTBSE|              20           0.132                               0.880E+002
 RTBSE|              21           0.135                               0.880E+002
 RTBSE|              22           0.134                               0.880E+002
 RTBSE|              23           0.133                               0.880E+002
 RTBSE|              24           0.133                               0.880E+002
 RTBSE|              25           0.134                               0.880E+002
 RTBSE|              26           0.132                               0.880E+002
 RTBSE|              27           0.132                               0.880E+002
 RTBSE|              28           0.132                               0.880E+002
 RTBSE|              29           0.133                               0.880E+002
 RTBSE|              30           0.133                               0.880E+002
 RTBSE|              31           0.132                               0.880E+002
 RTBSE|              32           0.132                               0.880E+002
 RTBSE|              33           0.132                               0.880E+002
 RTBSE|              34           0.134                               0.880E+002
 RTBSE|              35           0.132                               0.880E+002
 RTBSE|              36           0.136                               0.880E+002
 RTBSE|              37           0.133                               0.880E+002
 RTBSE|              38           0.134                               0.880E+002
 RTBSE|              39           0.132                               0.880E+002
 RTBSE|              40           0.132                               0.880E+002
 RTBSE|              41           0.132                               0.880E+002
 RTBSE|              42           0.133                               0.880E+002
 RTBSE|              43           0.132                               0.880E+002
 RTBSE|              44           0.132                               0.880E+002
 RTBSE|              45           0.132                               0.880E+002
 RTBSE|              46           0.132                               0.880E+002
 RTBSE|              47           0.132                               0.880E+002
 RTBSE|              48           0.133                               0.880E+002
 RTBSE|              49           0.138                               0.880E+002
 RTBSE|              50           0.132                               0.880E+002
 RTBSE|              51           0.140                               0.880E+002
 RTBSE|              52           0.134                               0.880E+002
 RTBSE|              53           0.134                               0.880E+002
 RTBSE|              54           0.132                               0.880E+002
 RTBSE|              55           0.138                               0.880E+002
 RTBSE|              56           0.133                               0.880E+002
 RTBSE|              57           0.133                               0.880E+002
 RTBSE|              58           0.132                               0.880E+002
 RTBSE|              59           0.135                               0.880E+002
 RTBSE|              60           0.136                               0.880E+002
 RTBSE|              61           0.132                               0.880E+002
 RTBSE|              62           0.134                               0.880E+002
 RTBSE|              63           0.133                               0.880E+002
 RTBSE|              64           0.132                               0.880E+002
 RTBSE|              65           0.133                               0.880E+002
 RTBSE|              66           0.134                               0.880E+002
 RTBSE|              67           0.133                               0.880E+002
 RTBSE|              68           0.134                               0.880E+002
 RTBSE|              69           0.134                               0.880E+002
 RTBSE|              70           0.133                               0.880E+002
 RTBSE|              71           0.133                               0.880E+002
 RTBSE|              72           0.132                               0.880E+002
 RTBSE|              73           0.136                               0.880E+002
 RTBSE|              74           0.135                               0.880E+002
 RTBSE|              75           0.132                               0.880E+002
 RTBSE|              76           0.133                               0.880E+002
 RTBSE|              77           0.134                               0.880E+002
 RTBSE|              78           0.133                               0.880E+002
 RTBSE|              79           0.133                               0.880E+002
 RTBSE|              80           0.134                               0.880E+002
 RTBSE|              81           0.135                               0.880E+002
 RTBSE|              82           0.132                               0.880E+002
 RTBSE|              83           0.135                               0.880E+002
 RTBSE|              84           0.133                               0.880E+002
 RTBSE|              85           0.143                               0.880E+002
 RTBSE|              86           0.133                               0.880E+002
 RTBSE|              87           0.133                               0.880E+002
 RTBSE|              88           0.134                               0.880E+002
 RTBSE|              89           0.133                               0.880E+002
 RTBSE|              90           0.132                               0.880E+002
 RTBSE|              91           0.133                               0.880E+002
 RTBSE|              92           0.134                               0.880E+002
 RTBSE|              93           0.134                               0.880E+002
 RTBSE|              94           0.134                               0.880E+002
 RTBSE|              95           0.132                               0.880E+002
 RTBSE|              96           0.134                               0.880E+002
 RTBSE|              97           0.134                               0.880E+002
 RTBSE|              98           0.135                               0.880E+002
 RTBSE|              99           0.134                               0.880E+002
 RTBSE|             100           0.134                               0.880E+002
 RTBSE|             101           0.133                               0.880E+002
 RTBSE|             102           0.133                               0.880E+002
 RTBSE|             103           0.133                               0.880E+002
 RTBSE|             104           0.317                               0.880E+002
 RTBSE|             105           0.136                               0.880E+002
 RTBSE|             106           0.134                               0.880E+002
 RTBSE|             107           0.136                               0.880E+002
 RTBSE|             108           0.133                               0.880E+002
 RTBSE|             109           0.173                               0.880E+002
 RTBSE|             110           0.186                               0.880E+002
 RTBSE|             111           0.135                               0.880E+002
 RTBSE|             112           0.135                               0.880E+002
 RTBSE|             113           0.136                               0.880E+002
 RTBSE|             114           0.134                               0.880E+002
 RTBSE|             115           0.134                               0.880E+002
 RTBSE|             116           0.134                               0.880E+002
 RTBSE|             117           0.165                               0.880E+002
 RTBSE|             118           0.139                               0.880E+002
 RTBSE|             119           0.134                               0.880E+002
 RTBSE|             120           0.138                               0.880E+002
 RTBSE|             121           0.134                               0.880E+002
 RTBSE|             122           0.140                               0.880E+002
 RTBSE|             123           0.135                               0.880E+002
 RTBSE|             124           0.134                               0.880E+002
 RTBSE|             125           0.173                               0.880E+002
 RTBSE|             126           0.139                               0.880E+002
 RTBSE|             127           0.133                               0.880E+002
 RTBSE|             128           0.133                               0.880E+002
 RTBSE|             129           0.133                               0.880E+002
 RTBSE|             130           0.135                               0.880E+002
 RTBSE|             131           0.141                               0.880E+002
 RTBSE|             132           0.136                               0.880E+002
 RTBSE|             133           0.133                               0.880E+002
 RTBSE|             134           0.133                               0.880E+002
 RTBSE|             135           0.136                               0.880E+002
 RTBSE|             136           0.134                               0.880E+002
 RTBSE|             137           0.134                               0.880E+002
 RTBSE|             138           0.138                               0.880E+002
 RTBSE|             139           0.135                               0.880E+002
 RTBSE|             140           0.136                               0.880E+002
 RTBSE|             141           0.136                               0.880E+002
 RTBSE|             142           0.134                               0.880E+002
 RTBSE|             143           0.133                               0.880E+002
 RTBSE|             144           0.136                               0.880E+002
 RTBSE|             145           0.133                               0.880E+002
 RTBSE|             146           0.137                               0.880E+002
 RTBSE|             147           0.134                               0.880E+002
 RTBSE|             148           0.134                               0.880E+002
 RTBSE|             149           0.133                               0.880E+002
 RTBSE|             150           0.135                               0.880E+002
 RTBSE|             151           0.135                               0.880E+002
 RTBSE|             152           0.134                               0.880E+002
 RTBSE|             153           0.135                               0.880E+002
 RTBSE|             154           0.167                               0.880E+002
 RTBSE|             155           0.143                               0.880E+002
 RTBSE|             156           0.134                               0.880E+002
 RTBSE|             157           0.136                               0.880E+002
 RTBSE|             158           0.133                               0.880E+002
 RTBSE|             159           0.137                               0.880E+002
 RTBSE|             160           0.134                               0.880E+002
 RTBSE|             161           0.134                               0.880E+002
 RTBSE|             162           0.188                               0.880E+002
 RTBSE|             163           0.134                               0.880E+002
 RTBSE|             164           0.134                               0.880E+002
 RTBSE|             165           0.134                               0.880E+002
 RTBSE|             166           0.133                               0.880E+002
 RTBSE|             167           0.135                               0.880E+002
 RTBSE|             168           0.135                               0.880E+002
 RTBSE|             169           0.140                               0.880E+002
 RTBSE|             170           0.134                               0.880E+002
 RTBSE|             171           0.135                               0.880E+002
 RTBSE|             172           0.133                               0.880E+002
 RTBSE|             173           0.134                               0.880E+002
 RTBSE|             174           0.134                               0.880E+002
 RTBSE|             175           0.134                               0.880E+002
 RTBSE|             176           0.133                               0.880E+002
 RTBSE|             177           0.135                               0.880E+002
 RTBSE|             178           0.134                               0.880E+002
 RTBSE|             179           0.136                               0.880E+002
 RTBSE|             180           0.134                               0.880E+002
 RTBSE|             181           0.135                               0.880E+002
 RTBSE|             182           0.134                               0.880E+002
 RTBSE|             183           0.135                               0.880E+002
 RTBSE|             184           0.136                               0.880E+002
 RTBSE|             185           0.134                               0.880E+002
 RTBSE|             186           0.136                               0.880E+002
 RTBSE|             187           0.136                               0.880E+002
 RTBSE|             188           0.134                               0.880E+002
 RTBSE|             189           0.135                               0.880E+002
 RTBSE|             190           0.134                               0.880E+002
 RTBSE|             191           0.133                               0.880E+002
 RTBSE|             192           0.140                               0.880E+002
 RTBSE|             193           0.135                               0.880E+002
 RTBSE|             194           0.140                               0.880E+002
 RTBSE|             195           0.134                               0.880E+002
 RTBSE|             196           0.134                               0.880E+002
 RTBSE|             197           0.135                               0.880E+002
 RTBSE|             198           0.141                               0.880E+002
 RTBSE|             199           0.136                               0.880E+002
 RTBSE|             200           0.134                               0.880E+002
 RTBSE|             201           0.134                               0.880E+002
 RTBSE|             202           0.134                               0.880E+002
 RTBSE|             203           0.138                               0.880E+002
 RTBSE|             204           0.133                               0.880E+002
 RTBSE|             205           0.137                               0.880E+002
 RTBSE|             206           0.135                               0.880E+002
 RTBSE|             207           0.138                               0.880E+002
 RTBSE|             208           0.133                               0.880E+002
 RTBSE|             209           0.135                               0.880E+002
 RTBSE|             210           0.134                               0.880E+002
 RTBSE|             211           0.134                               0.880E+002
 RTBSE|             212           0.136                               0.880E+002
 RTBSE|             213           0.135                               0.880E+002
 RTBSE|             214           0.135                               0.880E+002
 RTBSE|             215           0.133                               0.880E+002
 RTBSE|             216           0.136                               0.880E+002
 RTBSE|             217           0.134                               0.880E+002
 RTBSE|             218           0.134                               0.880E+002
 RTBSE|             219           0.135                               0.880E+002
 RTBSE|             220           0.134                               0.880E+002
 RTBSE|             221           0.135                               0.880E+002
 RTBSE|             222           0.133                               0.880E+002
 RTBSE|             223           0.133                               0.880E+002
 RTBSE|             224           0.136                               0.880E+002
 RTBSE|             225           0.133                               0.880E+002
 RTBSE|             226           0.134                               0.880E+002
 RTBSE|             227           0.134                               0.880E+002
 RTBSE|             228           0.161                               0.880E+002
 RTBSE|             229           0.135                               0.880E+002
 RTBSE|             230           0.134                               0.880E+002
 RTBSE|             231           0.139                               0.880E+002
 RTBSE|             232           0.136                               0.880E+002
 RTBSE|             233           0.134                               0.880E+002
 RTBSE|             234           0.134                               0.880E+002
 RTBSE|             235           0.136                               0.880E+002
 RTBSE|             236           0.134                               0.880E+002
 RTBSE|             237           0.134                               0.880E+002
 RTBSE|             238           0.136                               0.880E+002
 RTBSE|             239           0.135                               0.880E+002
 RTBSE|             240           0.153                               0.880E+002
 RTBSE|             241           0.136                               0.880E+002
 RTBSE|             242           0.136                               0.880E+002
 RTBSE|             243           0.134                               0.880E+002
 RTBSE|             244           0.135                               0.880E+002
 RTBSE|             245           0.134                               0.880E+002
 RTBSE|             246           0.133                               0.880E+002
 RTBSE|             247           0.148                               0.880E+002
 RTBSE|             248           0.168                               0.880E+002
 RTBSE|             249           0.136                               0.880E+002
 RTBSE|             250           0.135                               0.880E+002
 RTBSE|             251           0.134                               0.880E+002
 RTBSE|             252           0.138                               0.880E+002
 RTBSE|             253           0.134                               0.880E+002
 RTBSE|             254           0.134                               0.880E+002
 RTBSE|             255           0.181                               0.880E+002
 RTBSE|             256           0.136                               0.880E+002
 RTBSE|             257           0.134                               0.880E+002
 RTBSE|             258           0.135                               0.880E+002
 RTBSE|             259           0.134                               0.880E+002
 RTBSE|             260           0.134                               0.880E+002
 RTBSE|             261           0.134                               0.880E+002
 RTBSE|             262           0.175                               0.880E+002
 RTBSE|             263           0.139                               0.880E+002
 RTBSE|             264           0.135                               0.880E+002
 RTBSE|             265           0.136                               0.880E+002
 RTBSE|             266           0.166                               0.880E+002
 RTBSE|             267           0.136                               0.880E+002
 RTBSE|             268           0.133                               0.880E+002
 RTBSE|             269           0.136                               0.880E+002
 RTBSE|             270           0.139                               0.880E+002
 RTBSE|             271           0.134                               0.880E+002
 RTBSE|             272           0.137                               0.880E+002
 RTBSE|             273           0.134                               0.880E+002
 RTBSE|             274           0.135                               0.880E+002
 RTBSE|             275           0.136                               0.880E+002
 RTBSE|             276           0.136                               0.880E+002
 RTBSE|             277           0.135                               0.880E+002
 RTBSE|             278           0.136                               0.880E+002
 RTBSE|             279           0.136                               0.880E+002
 RTBSE|             280           0.136                               0.880E+002
 RTBSE|             281           0.134                               0.880E+002
 RTBSE|             282           0.138                               0.880E+002
 RTBSE|             283           0.135                               0.880E+002
 RTBSE|             284           0.134                               0.880E+002
 RTBSE|             285           0.139                               0.880E+002
 RTBSE|             286           0.134                               0.880E+002
 RTBSE|             287           0.138                               0.880E+002
 RTBSE|             288           0.135                               0.880E+002
 RTBSE|             289           0.134                               0.880E+002
 RTBSE|             290           0.135                               0.880E+002
 RTBSE|             291           0.215                               0.880E+002
 RTBSE|             292           0.135                               0.880E+002
 RTBSE|             293           0.136                               0.880E+002
 RTBSE|             294           0.138                               0.880E+002
 RTBSE|             295           0.135                               0.880E+002
 RTBSE|             296           0.134                               0.880E+002
 RTBSE|             297           0.135                               0.880E+002
 RTBSE|             298           0.144                               0.880E+002
 RTBSE|             299           0.137                               0.880E+002
 RTBSE|             300           0.135                               0.880E+002
 RTBSE|             301           0.137                               0.880E+002
 RTBSE|             302           0.134                               0.880E+002
 RTBSE|             303           0.138                               0.880E+002
 RTBSE|             304           0.134                               0.880E+002
 RTBSE|             305           0.135                               0.880E+002
 RTBSE|             306           0.135                               0.880E+002
 RTBSE|             307           0.135                               0.880E+002
 RTBSE|             308           0.134                               0.880E+002
 RTBSE|             309           0.136                               0.880E+002
 RTBSE|             310           0.135                               0.880E+002
 RTBSE|             311           0.135                               0.880E+002
 RTBSE|             312           0.135                               0.880E+002
 RTBSE|             313           0.133                               0.880E+002
 RTBSE|             314           0.135                               0.880E+002
 RTBSE|             315           0.136                               0.880E+002
 RTBSE|             316           0.136                               0.880E+002
 RTBSE|             317           0.174                               0.880E+002
 RTBSE|             318           0.135                               0.880E+002
 RTBSE|             319           0.136                               0.880E+002
 RTBSE|             320           0.136                               0.880E+002
 RTBSE|             321           0.136                               0.880E+002
 RTBSE|             322           0.135                               0.880E+002
 RTBSE|             323           0.163                               0.880E+002
 RTBSE|             324           0.278                               0.880E+002
 RTBSE|             325           0.134                               0.880E+002
 RTBSE|             326           0.138                               0.880E+002
 RTBSE|             327           0.136                               0.880E+002
 RTBSE|             328           0.139                               0.880E+002
 RTBSE|             329           0.138                               0.880E+002
 RTBSE|             330           0.137                               0.880E+002
 RTBSE|             331           0.137                               0.880E+002
 RTBSE|             332           0.135                               0.880E+002
 RTBSE|             333           0.142                               0.880E+002
 RTBSE|             334           0.136                               0.880E+002
 RTBSE|             335           0.134                               0.880E+002
 RTBSE|             336           0.142                               0.880E+002
 RTBSE|             337           0.135                               0.880E+002
 RTBSE|             338           0.134                               0.880E+002
 RTBSE|             339           0.136                               0.880E+002
 RTBSE|             340           0.141                               0.880E+002
 RTBSE|             341           0.137                               0.880E+002
 RTBSE|             342           0.135                               0.880E+002
 RTBSE|             343           0.136                               0.880E+002
 RTBSE|             344           0.140                               0.880E+002
 RTBSE|             345           0.137                               0.880E+002
 RTBSE|             346           0.136                               0.880E+002
 RTBSE|             347           0.137                               0.880E+002
 RTBSE|             348           0.134                               0.880E+002
 RTBSE|             349           0.138                               0.880E+002
 RTBSE|             350           0.138                               0.880E+002
 RTBSE|             351           0.136                               0.880E+002
 RTBSE|             352           0.134                               0.880E+002
 RTBSE|             353           0.136                               0.880E+002
 RTBSE|             354           0.137                               0.880E+002
 RTBSE|             355           0.135                               0.880E+002
 RTBSE|             356           0.136                               0.880E+002
 RTBSE|             357           0.136                               0.880E+002
 RTBSE|             358           0.136                               0.880E+002
 RTBSE|             359           0.137                               0.880E+002
 RTBSE|             360           0.135                               0.880E+002
 RTBSE|             361           0.135                               0.880E+002
 RTBSE|             362           0.134                               0.880E+002
 RTBSE|             363           0.137                               0.880E+002
 RTBSE|             364           0.134                               0.880E+002
 RTBSE|             365           0.135                               0.880E+002
 RTBSE|             366           0.135                               0.880E+002
 RTBSE|             367           0.136                               0.880E+002
 RTBSE|             368           0.134                               0.880E+002
 RTBSE|             369           0.142                               0.880E+002
 RTBSE|             370           0.135                               0.880E+002
 RTBSE|             371           0.134                               0.880E+002
 RTBSE|             372           0.139                               0.880E+002
 RTBSE|             373           0.135                               0.880E+002
 RTBSE|             374           0.136                               0.880E+002
 RTBSE|             375           0.137                               0.880E+002
 RTBSE|             376           0.138                               0.880E+002
 RTBSE|             377           0.136                               0.880E+002
 RTBSE|             378           0.137                               0.880E+002
 RTBSE|             379           0.134                               0.880E+002
 RTBSE|             380           0.134                               0.880E+002
 RTBSE|             381           0.136                               0.880E+002
 RTBSE|             382           0.134                               0.880E+002
 RTBSE|             383           0.135                               0.880E+002
 RTBSE|             384           0.135                               0.880E+002
 RTBSE|             385           0.137                               0.880E+002
 RTBSE|             386           0.135                               0.880E+002
 RTBSE|             387           0.137                               0.880E+002
 RTBSE|             388           0.135                               0.880E+002
 RTBSE|             389           0.135                               0.880E+002
 RTBSE|             390           0.136                               0.880E+002
 RTBSE|             391           0.136                               0.880E+002
 RTBSE|             392           0.134                               0.880E+002
 RTBSE|             393           0.134                               0.880E+002
 RTBSE|             394           0.138                               0.880E+002
 RTBSE|             395           0.134                               0.880E+002
 RTBSE|             396           0.138                               0.880E+002
 RTBSE|             397           0.134                               0.880E+002
 RTBSE|             398           0.136                               0.880E+002
 RTBSE|             399           0.137                               0.880E+002
 RTBSE|             400           0.136                               0.880E+002
 RTBSE|             401           0.135                               0.880E+002
 RTBSE|             402           0.135                               0.880E+002
 RTBSE|             403           0.136                               0.880E+002
 RTBSE|             404           0.134                               0.880E+002
 RTBSE|             405           0.134                               0.880E+002
 RTBSE|             406           0.139                               0.880E+002
 RTBSE|             407           0.135                               0.880E+002
 RTBSE|             408           0.143                               0.880E+002
 RTBSE|             409           0.139                               0.880E+002
 RTBSE|             410           0.134                               0.880E+002
 RTBSE|             411           0.138                               0.880E+002
 RTBSE|             412           0.139                               0.880E+002
 RTBSE|             413           0.136                               0.880E+002
 RTBSE|             414           0.135                               0.880E+002
 RTBSE|             415           0.134                               0.880E+002
 RTBSE|             416           0.136                               0.880E+002
 RTBSE|             417           0.139                               0.880E+002
 RTBSE|             418           0.136                               0.880E+002
 RTBSE|             419           0.136                               0.880E+002
 RTBSE|             420           0.134                               0.880E+002
 RTBSE|             421           0.137                               0.880E+002
 RTBSE|             422           0.136                               0.880E+002
 RTBSE|             423           0.134                               0.880E+002
 RTBSE|             424           0.138                               0.880E+002
 RTBSE|             425           0.134                               0.880E+002
 RTBSE|             426           0.138                               0.880E+002
 RTBSE|             427           0.135                               0.880E+002
 RTBSE|             428           0.135                               0.880E+002
 RTBSE|             429           0.134                               0.880E+002
 RTBSE|             430           0.137                               0.880E+002
 RTBSE|             431           0.139                               0.880E+002
 RTBSE|             432           0.137                               0.880E+002
 RTBSE|             433           0.138                               0.880E+002
 RTBSE|             434           0.136                               0.880E+002
 RTBSE|             435           0.134                               0.880E+002
 RTBSE|             436           0.136                               0.880E+002
 RTBSE|             437           0.136                               0.880E+002
 RTBSE|             438           0.137                               0.880E+002
 RTBSE|             439           0.135                               0.880E+002
 RTBSE|             440           0.134                               0.880E+002
 RTBSE|             441           0.146                               0.880E+002
 RTBSE|             442           0.137                               0.880E+002
 RTBSE|             443           0.137                               0.880E+002
 RTBSE|             444           0.134                               0.880E+002
 RTBSE|             445           0.136                               0.880E+002
 RTBSE|             446           0.138                               0.880E+002
 RTBSE|             447           0.137                               0.880E+002
 RTBSE|             448           0.136                               0.880E+002
 RTBSE|             449           0.137                               0.880E+002
 RTBSE|             450           0.135                               0.880E+002
 RTBSE|             451           0.134                               0.880E+002
 RTBSE|             452           0.136                               0.880E+002
 RTBSE|             453           0.135                               0.880E+002
 RTBSE|             454           0.134                               0.880E+002
 RTBSE|             455           0.137                               0.880E+002
 RTBSE|             456           0.136                               0.880E+002
 RTBSE|             457           0.136                               0.880E+002
 RTBSE|             458           0.136                               0.880E+002
 RTBSE|             459           0.137                               0.880E+002
 RTBSE|             460           0.135                               0.880E+002
 RTBSE|             461           0.136                               0.880E+002
 RTBSE|             462           0.137                               0.880E+002
 RTBSE|             463           0.136                               0.880E+002
 RTBSE|             464           0.140                               0.880E+002
 RTBSE|             465           0.136                               0.880E+002
 RTBSE|             466           0.137                               0.880E+002
 RTBSE|             467           0.137                               0.880E+002
 RTBSE|             468           0.137                               0.880E+002
 RTBSE|             469           0.135                               0.880E+002
 RTBSE|             470           0.137                               0.880E+002
 RTBSE|             471           0.139                               0.880E+002
 RTBSE|             472           0.136                               0.880E+002
 RTBSE|             473           0.135                               0.880E+002
 RTBSE|             474           0.134                               0.880E+002
 RTBSE|             475           0.137                               0.880E+002
 RTBSE|             476           0.135                               0.880E+002
 RTBSE|             477           0.138                               0.880E+002
 RTBSE|             478           0.140                               0.880E+002
 RTBSE|             479           0.134                               0.880E+002
 RTBSE|             480           0.142                               0.880E+002
 RTBSE|             481           0.135                               0.880E+002
 RTBSE|             482           0.137                               0.880E+002
 RTBSE|             483           0.137                               0.880E+002
 RTBSE|             484           0.141                               0.880E+002
 RTBSE|             485           0.135                               0.880E+002
 RTBSE|             486           0.139                               0.880E+002
 RTBSE|             487           0.134                               0.880E+002
 RTBSE|             488           0.138                               0.880E+002
 RTBSE|             489           0.139                               0.880E+002
 RTBSE|             490           0.136                               0.880E+002
 RTBSE|             491           0.135                               0.880E+002
 RTBSE|             492           0.138                               0.880E+002
 RTBSE|             493           0.136                               0.880E+002
 RTBSE|             494           0.138                               0.880E+002
 RTBSE|             495           0.135                               0.880E+002
 RTBSE|             496           0.134                               0.880E+002
 RTBSE|             497           0.138                               0.880E+002
 RTBSE|             498           0.142                               0.880E+002
 RTBSE|             499           0.136                               0.880E+002
 RTBSE|             500           0.136                               0.880E+002
 RTBSE|             501           0.137                               0.880E+002
 RTBSE|             502           0.137                               0.880E+002
 RTBSE|             503           0.135                               0.880E+002
 RTBSE|             504           0.136                               0.880E+002
 RTBSE|             505           0.138                               0.880E+002
 RTBSE|             506           0.135                               0.880E+002
 RTBSE|             507           0.136                               0.880E+002
 RTBSE|             508           0.137                               0.880E+002
 RTBSE|             509           0.137                               0.880E+002
 RTBSE|             510           0.135                               0.880E+002
 RTBSE|             511           0.135                               0.880E+002
 RTBSE|             512           0.135                               0.880E+002
 RTBSE|             513           0.143                               0.880E+002
 RTBSE|             514           0.140                               0.880E+002
 RTBSE|             515           0.136                               0.880E+002
 RTBSE|             516           0.137                               0.880E+002
 RTBSE|             517           0.136                               0.880E+002
 RTBSE|             518           0.136                               0.880E+002
 RTBSE|             519           0.139                               0.880E+002
 RTBSE|             520           0.138                               0.880E+002
 RTBSE|             521           0.141                               0.880E+002
 RTBSE|             522           0.136                               0.880E+002
 RTBSE|             523           0.138                               0.880E+002
 RTBSE|             524           0.136                               0.880E+002
 RTBSE|             525           0.135                               0.880E+002
 RTBSE|             526           0.139                               0.880E+002
 RTBSE|             527           0.136                               0.880E+002
 RTBSE|             528           0.153                               0.880E+002
 RTBSE|             529           0.140                               0.880E+002
 RTBSE|             530           0.138                               0.880E+002
 RTBSE|             531           0.138                               0.880E+002
 RTBSE|             532           0.300                               0.880E+002
 RTBSE|             533           0.186                               0.880E+002
 RTBSE|             534           0.202                               0.880E+002
 RTBSE|             535           0.170                               0.880E+002
 RTBSE|             536           0.193                               0.880E+002
 RTBSE|             537           0.191                               0.880E+002
 RTBSE|             538           0.178                               0.880E+002
 RTBSE|             539           0.139                               0.880E+002
 RTBSE|             540           0.178                               0.880E+002
 RTBSE|             541           0.138                               0.880E+002
 RTBSE|             542           0.139                               0.880E+002
 RTBSE|             543           0.136                               0.880E+002
 RTBSE|             544           0.137                               0.880E+002
 RTBSE|             545           0.138                               0.880E+002
 RTBSE|             546           0.148                               0.880E+002
 RTBSE|             547           0.171                               0.880E+002
 RTBSE|             548           0.143                               0.880E+002
 RTBSE|             549           0.138                               0.880E+002
 RTBSE|             550           0.135                               0.880E+002
 RTBSE|             551           0.137                               0.880E+002
 RTBSE|             552           0.140                               0.880E+002
 RTBSE|             553           0.137                               0.880E+002
 RTBSE|             554           0.138                               0.880E+002
 RTBSE|             555           0.134                               0.880E+002
 RTBSE|             556           0.141                               0.880E+002
 RTBSE|             557           0.136                               0.880E+002
 RTBSE|             558           0.135                               0.880E+002
 RTBSE|             559           0.138                               0.880E+002
 RTBSE|             560           0.138                               0.880E+002
 RTBSE|             561           0.139                               0.880E+002
 RTBSE|             562           0.135                               0.880E+002
 RTBSE|             563           0.135                               0.880E+002
 RTBSE|             564           0.134                               0.880E+002
 RTBSE|             565           0.136                               0.880E+002
 RTBSE|             566           0.137                               0.880E+002
 RTBSE|             567           0.140                               0.880E+002
 RTBSE|             568           0.139                               0.880E+002
 RTBSE|             569           0.138                               0.880E+002
 RTBSE|             570           0.138                               0.880E+002
 RTBSE|             571           0.137                               0.880E+002
 RTBSE|             572           0.134                               0.880E+002
 RTBSE|             573           0.137                               0.880E+002
 RTBSE|             574           0.138                               0.880E+002
 RTBSE|             575           0.207                               0.880E+002
 RTBSE|             576           0.136                               0.880E+002
 RTBSE|             577           0.135                               0.880E+002
 RTBSE|             578           0.137                               0.880E+002
 RTBSE|             579           0.135                               0.880E+002
 RTBSE|             580           0.145                               0.880E+002
 RTBSE|             581           0.136                               0.880E+002
 RTBSE|             582           0.139                               0.880E+002
 RTBSE|             583           0.136                               0.880E+002
 RTBSE|             584           0.136                               0.880E+002
 RTBSE|             585           0.135                               0.880E+002
 RTBSE|             586           0.134                               0.880E+002
 RTBSE|             587           0.139                               0.880E+002
 RTBSE|             588           0.139                               0.880E+002
 RTBSE|             589           0.137                               0.880E+002
 RTBSE|             590           0.141                               0.880E+002
 RTBSE|             591           0.136                               0.880E+002
 RTBSE|             592           0.139                               0.880E+002
 RTBSE|             593           0.139                               0.880E+002
 RTBSE|             594           0.139                               0.880E+002
 RTBSE|             595           0.136                               0.880E+002
 RTBSE|             596           0.137                               0.880E+002
 RTBSE|             597           0.135                               0.880E+002
 RTBSE|             598           0.135                               0.880E+002
 RTBSE|             599           0.138                               0.880E+002
 RTBSE|             600           0.136                               0.880E+002
 RTBSE|             601           0.136                               0.880E+002
 RTBSE|             602           0.137                               0.880E+002
 RTBSE|             603           0.142                               0.880E+002
 RTBSE|             604           0.139                               0.880E+002
 RTBSE|             605           0.137                               0.880E+002
 RTBSE|             606           0.135                               0.880E+002
 RTBSE|             607           0.135                               0.880E+002
 RTBSE|             608           0.136                               0.880E+002
 RTBSE|             609           0.136                               0.880E+002
 RTBSE|             610           0.138                               0.880E+002
 RTBSE|             611           0.135                               0.880E+002
 RTBSE|             612           0.134                               0.880E+002
 RTBSE|             613           0.137                               0.880E+002
 RTBSE|             614           0.141                               0.880E+002
 RTBSE|             615           0.136                               0.880E+002
 RTBSE|             616           0.139                               0.880E+002
 RTBSE|             617           0.142                               0.880E+002
 RTBSE|             618           0.136                               0.880E+002
 RTBSE|             619           0.145                               0.880E+002
 RTBSE|             620           0.139                               0.880E+002
 RTBSE|             621           0.134                               0.880E+002
 RTBSE|             622           0.135                               0.880E+002
 RTBSE|             623           0.140                               0.880E+002
 RTBSE|             624           0.139                               0.880E+002
 RTBSE|             625           0.137                               0.880E+002
 RTBSE|             626           0.137                               0.880E+002
 RTBSE|             627           0.140                               0.880E+002
 RTBSE|             628           0.135                               0.880E+002
 RTBSE|             629           0.137                               0.880E+002
 RTBSE|             630           0.135                               0.880E+002
 RTBSE|             631           0.135                               0.880E+002
 RTBSE|             632           0.138                               0.880E+002
 RTBSE|             633           0.137                               0.880E+002
 RTBSE|             634           0.136                               0.880E+002
 RTBSE|             635           0.134                               0.880E+002
 RTBSE|             636           0.135                               0.880E+002
 RTBSE|             637           0.158                               0.880E+002
 RTBSE|             638           0.137                               0.880E+002
 RTBSE|             639           0.135                               0.880E+002
 RTBSE|             640           0.142                               0.880E+002
 RTBSE|             641           0.136                               0.880E+002
 RTBSE|             642           0.135                               0.880E+002
 RTBSE|             643           0.137                               0.880E+002
 RTBSE|             644           0.177                               0.880E+002
 RTBSE|             645           0.152                               0.880E+002
 RTBSE|             646           0.137                               0.880E+002
 RTBSE|             647           0.138                               0.880E+002
 RTBSE|             648           0.136                               0.880E+002
 RTBSE|             649           0.135                               0.880E+002
 RTBSE|             650           0.137                               0.880E+002
 RTBSE|             651           0.184                               0.880E+002
 RTBSE|             652           0.161                               0.880E+002
 RTBSE|             653           0.139                               0.880E+002
 RTBSE|             654           0.135                               0.880E+002
 RTBSE|             655           0.137                               0.880E+002
 RTBSE|             656           0.137                               0.880E+002
 RTBSE|             657           0.135                               0.880E+002
 RTBSE|             658           0.135                               0.880E+002
 RTBSE|             659           0.181                               0.880E+002
 RTBSE|             660           0.137                               0.880E+002
 RTBSE|             661           0.136                               0.880E+002
 RTBSE|             662           0.137                               0.880E+002
 RTBSE|             663           0.137                               0.880E+002
 RTBSE|             664           0.138                               0.880E+002
 RTBSE|             665           0.138                               0.880E+002
 RTBSE|             666           0.136                               0.880E+002
 RTBSE|             667           0.139                               0.880E+002
 RTBSE|             668           0.135                               0.880E+002
 RTBSE|             669           0.134                               0.880E+002
 RTBSE|             670           0.137                               0.880E+002
 RTBSE|             671           0.137                               0.880E+002
 RTBSE|             672           0.134                               0.880E+002
 RTBSE|             673           0.140                               0.880E+002
 RTBSE|             674           0.135                               0.880E+002
 RTBSE|             675           0.140                               0.880E+002
 RTBSE|             676           0.140                               0.880E+002
 RTBSE|             677           0.138                               0.880E+002
 RTBSE|             678           0.136                               0.880E+002
 RTBSE|             679           0.140                               0.880E+002
 RTBSE|             680           0.137                               0.880E+002
 RTBSE|             681           0.136                               0.880E+002
 RTBSE|             682           0.137                               0.880E+002
 RTBSE|             683           0.137                               0.880E+002
 RTBSE|             684           0.137                               0.880E+002
 RTBSE|             685           0.137                               0.880E+002
 RTBSE|             686           0.140                               0.880E+002
 RTBSE|             687           0.217                               0.880E+002
 RTBSE|             688           0.135                               0.880E+002
 RTBSE|             689           0.172                               0.880E+002
 RTBSE|             690           0.139                               0.880E+002
 RTBSE|             691           0.137                               0.880E+002
 RTBSE|             692           0.139                               0.880E+002
 RTBSE|             693           0.141                               0.880E+002
 RTBSE|             694           0.135                               0.880E+002
 RTBSE|             695           0.135                               0.880E+002
 RTBSE|             696           0.136                               0.880E+002
 RTBSE|             697           0.139                               0.880E+002
 RTBSE|             698           0.135                               0.880E+002
 RTBSE|             699           0.135                               0.880E+002
 RTBSE|             700           0.136                               0.880E+002
 RTBSE|             701           0.136                               0.880E+002
 RTBSE|             702           0.139                               0.880E+002
 RTBSE|             703           0.136                               0.880E+002
 RTBSE|             704           0.137                               0.880E+002
 RTBSE|             705           0.139                               0.880E+002
 RTBSE|             706           0.136                               0.880E+002
 RTBSE|             707           0.137                               0.880E+002
 RTBSE|             708           0.135                               0.880E+002
 RTBSE|             709           0.134                               0.880E+002
 RTBSE|             710           0.138                               0.880E+002
 RTBSE|             711           0.138                               0.880E+002
 RTBSE|             712           0.137                               0.880E+002
 RTBSE|             713           0.136                               0.880E+002
 RTBSE|             714           0.136                               0.880E+002
 RTBSE|             715           0.139                               0.880E+002
 RTBSE|             716           0.137                               0.880E+002
 RTBSE|             717           0.136                               0.880E+002
 RTBSE|             718           0.137                               0.880E+002
 RTBSE|             719           0.137                               0.880E+002
 RTBSE|             720           0.138                               0.880E+002
 RTBSE|             721           0.139                               0.880E+002
 RTBSE|             722           0.144                               0.880E+002
 RTBSE|             723           0.138                               0.880E+002
 RTBSE|             724           0.138                               0.880E+002
 RTBSE|             725           0.139                               0.880E+002
 RTBSE|             726           0.139                               0.880E+002
 RTBSE|             727           0.135                               0.880E+002
 RTBSE|             728           0.135                               0.880E+002
 RTBSE|             729           0.136                               0.880E+002
 RTBSE|             730           0.137                               0.880E+002
 RTBSE|             731           0.137                               0.880E+002
 RTBSE|             732           0.140                               0.880E+002
 RTBSE|             733           0.135                               0.880E+002
 RTBSE|             734           0.135                               0.880E+002
 RTBSE|             735           0.141                               0.880E+002
 RTBSE|             736           0.140                               0.880E+002
 RTBSE|             737           0.135                               0.880E+002
 RTBSE|             738           0.138                               0.880E+002
 RTBSE|             739           0.136                               0.880E+002
 RTBSE|             740           0.163                               0.880E+002
 RTBSE|             741           0.140                               0.880E+002
 RTBSE|             742           0.135                               0.880E+002
 RTBSE|             743           0.136                               0.880E+002
 RTBSE|             744           0.137                               0.880E+002
 RTBSE|             745           0.135                               0.880E+002
 RTBSE|             746           0.138                               0.880E+002
 RTBSE|             747           0.306                               0.880E+002
 RTBSE|             748           0.139                               0.880E+002
 RTBSE|             749           0.136                               0.880E+002
 RTBSE|             750           0.135                               0.880E+002
 RTBSE|             751           0.138                               0.880E+002
 RTBSE|             752           0.135                               0.880E+002
 RTBSE|             753           0.135                               0.880E+002
 RTBSE|             754           0.141                               0.880E+002
 RTBSE|             755           0.134                               0.880E+002
 RTBSE|             756           0.143                               0.880E+002
 RTBSE|             757           0.141                               0.880E+002
 RTBSE|             758           0.136                               0.880E+002
 RTBSE|             759           0.142                               0.880E+002
 RTBSE|             760           0.135                               0.880E+002
 RTBSE|             761           0.141                               0.880E+002
 RTBSE|             762           0.135                               0.880E+002
 RTBSE|             763           0.145                               0.880E+002
 RTBSE|             764           0.139                               0.880E+002
 RTBSE|             765           0.135                               0.880E+002
 RTBSE|             766           0.140                               0.880E+002
 RTBSE|             767           0.138                               0.880E+002
 RTBSE|             768           0.137                               0.880E+002
 RTBSE|             769           0.139                               0.880E+002
 RTBSE|             770           0.143                               0.880E+002
 RTBSE|             771           0.135                               0.880E+002
 RTBSE|             772           0.139                               0.880E+002
 RTBSE|             773           0.138                               0.880E+002
 RTBSE|             774           0.136                               0.880E+002
 RTBSE|             775           0.136                               0.880E+002
 RTBSE|             776           0.136                               0.880E+002
 RTBSE|             777           0.139                               0.880E+002
 RTBSE|             778           0.139                               0.880E+002
 RTBSE|             779           0.141                               0.880E+002
 RTBSE|             780           0.137                               0.880E+002
 RTBSE|             781           0.142                               0.880E+002
 RTBSE|             782           0.136                               0.880E+002
 RTBSE|             783           0.140                               0.880E+002
 RTBSE|             784           0.135                               0.880E+002
 RTBSE|             785           0.136                               0.880E+002
 RTBSE|             786           0.138                               0.880E+002
 RTBSE|             787           0.135                               0.880E+002
 RTBSE|             788           0.141                               0.880E+002
 RTBSE|             789           0.138                               0.880E+002
 RTBSE|             790           0.137                               0.880E+002
 RTBSE|             791           0.145                               0.880E+002
 RTBSE|             792           0.137                               0.880E+002
 RTBSE|             793           0.135                               0.880E+002
 RTBSE|             794           0.139                               0.880E+002
 RTBSE|             795           0.137                               0.880E+002
 RTBSE|             796           0.142                               0.880E+002
 RTBSE|             797           0.137                               0.880E+002
 RTBSE|             798           0.136                               0.880E+002
 RTBSE|             799           0.135                               0.880E+002
 RTBSE|             800           0.135                               0.880E+002
 RTBSE|             801           0.138                               0.880E+002
 RTBSE|             802           0.137                               0.880E+002
 RTBSE|             803           0.135                               0.880E+002
 RTBSE|             804           0.136                               0.880E+002
 RTBSE|             805           0.138                               0.880E+002
 RTBSE|             806           0.137                               0.880E+002
 RTBSE|             807           0.135                               0.880E+002
 RTBSE|             808           0.138                               0.880E+002
 RTBSE|             809           0.137                               0.880E+002
 RTBSE|             810           0.137                               0.880E+002
 RTBSE|             811           0.135                               0.880E+002
 RTBSE|             812           0.139                               0.880E+002
 RTBSE|             813           0.139                               0.880E+002
 RTBSE|             814           0.136                               0.880E+002
 RTBSE|             815           0.135                               0.880E+002
 RTBSE|             816           0.137                               0.880E+002
 RTBSE|             817           0.138                               0.880E+002
 RTBSE|             818           0.136                               0.880E+002
 RTBSE|             819           0.136                               0.880E+002
 RTBSE|             820           0.142                               0.880E+002
 RTBSE|             821           0.139                               0.880E+002
 RTBSE|             822           0.138                               0.880E+002
 RTBSE|             823           0.142                               0.880E+002
 RTBSE|             824           0.135                               0.880E+002
 RTBSE|             825           0.135                               0.880E+002
 RTBSE|             826           0.139                               0.880E+002
 RTBSE|             827           0.135                               0.880E+002
 RTBSE|             828           0.146                               0.880E+002
 RTBSE|             829           0.139                               0.880E+002
 RTBSE|             830           0.145                               0.880E+002
 RTBSE|             831           0.136                               0.880E+002
 RTBSE|             832           0.135                               0.880E+002
 RTBSE|             833           0.141                               0.880E+002
 RTBSE|             834           0.149                               0.880E+002
 RTBSE|             835           0.138                               0.880E+002
 RTBSE|             836           0.140                               0.880E+002
 RTBSE|             837           0.136                               0.880E+002
 RTBSE|             838           0.145                               0.880E+002
 RTBSE|             839           0.139                               0.880E+002
 RTBSE|             840           0.138                               0.880E+002
 RTBSE|             841           0.139                               0.880E+002
 RTBSE|             842           0.140                               0.880E+002
 RTBSE|             843           0.142                               0.880E+002
 RTBSE|             844           0.140                               0.880E+002
 RTBSE|             845           0.139                               0.880E+002
 RTBSE|             846           0.138                               0.880E+002
 RTBSE|             847           0.139                               0.880E+002
 RTBSE|             848           0.140                               0.880E+002
 RTBSE|             849           0.136                               0.880E+002
 RTBSE|             850           0.138                               0.880E+002
 RTBSE|             851           0.138                               0.880E+002
 RTBSE|             852           0.136                               0.880E+002
 RTBSE|             853           0.136                               0.880E+002
 RTBSE|             854           0.135                               0.880E+002
 RTBSE|             855           0.140                               0.880E+002
 RTBSE|             856           0.140                               0.880E+002
 RTBSE|             857           0.136                               0.880E+002
 RTBSE|             858           0.139                               0.880E+002
 RTBSE|             859           0.137                               0.880E+002
 RTBSE|             860           0.135                               0.880E+002
 RTBSE|             861           0.136                               0.880E+002
 RTBSE|             862           0.139                               0.880E+002
 RTBSE|             863           0.145                               0.880E+002
 RTBSE|             864           0.142                               0.880E+002
 RTBSE|             865           0.138                               0.880E+002
 RTBSE|             866           0.136                               0.880E+002
 RTBSE|             867           0.143                               0.880E+002
 RTBSE|             868           0.138                               0.880E+002
 RTBSE|             869           0.135                               0.880E+002
 RTBSE|             870           0.138                               0.880E+002
 RTBSE|             871           0.140                               0.880E+002
 RTBSE|             872           0.137                               0.880E+002
 RTBSE|             873           0.136                               0.880E+002
 RTBSE|             874           0.137                               0.880E+002
 RTBSE|             875           0.136                               0.880E+002
 RTBSE|             876           0.138                               0.880E+002
 RTBSE|             877           0.135                               0.880E+002
 RTBSE|             878           0.142                               0.880E+002
 RTBSE|             879           0.138                               0.880E+002
 RTBSE|             880           0.140                               0.880E+002
 RTBSE|             881           0.139                               0.880E+002
 RTBSE|             882           0.136                               0.880E+002
 RTBSE|             883           0.136                               0.880E+002
 RTBSE|             884           0.137                               0.880E+002
 RTBSE|             885           0.139                               0.880E+002
 RTBSE|             886           0.135                               0.880E+002
 RTBSE|             887           0.135                               0.880E+002
 RTBSE|             888           0.136                               0.880E+002
 RTBSE|             889           0.139                               0.880E+002
 RTBSE|             890           0.139                               0.880E+002
 RTBSE|             891           0.135                               0.880E+002
 RTBSE|             892           0.137                               0.880E+002
 RTBSE|             893           0.143                               0.880E+002
 RTBSE|             894           0.136                               0.880E+002
 RTBSE|             895           0.137                               0.880E+002
 RTBSE|             896           0.138                               0.880E+002
 RTBSE|             897           0.142                               0.880E+002
 RTBSE|             898           0.136                               0.880E+002
 RTBSE|             899           0.142                               0.880E+002
 RTBSE|             900           0.137                               0.880E+002
 RTBSE|             901           0.147                               0.880E+002
 RTBSE|             902           0.140                               0.880E+002
 RTBSE|             903           0.140                               0.880E+002
 RTBSE|             904           0.142                               0.880E+002
 RTBSE|             905           0.142                               0.880E+002
 RTBSE|             906           0.137                               0.880E+002
 RTBSE|             907           0.138                               0.880E+002
 RTBSE|             908           0.138                               0.880E+002
 RTBSE|             909           0.139                               0.880E+002
 RTBSE|             910           0.138                               0.880E+002
 RTBSE|             911           0.138                               0.880E+002
 RTBSE|             912           0.142                               0.880E+002
 RTBSE|             913           0.138                               0.880E+002
 RTBSE|             914           0.139                               0.880E+002
 RTBSE|             915           0.140                               0.880E+002
 RTBSE|             916           0.138                               0.880E+002
 RTBSE|             917           0.140                               0.880E+002
 RTBSE|             918           0.139                               0.880E+002
 RTBSE|             919           0.136                               0.880E+002
 RTBSE|             920           0.138                               0.880E+002
 RTBSE|             921           0.145                               0.880E+002
 RTBSE|             922           0.136                               0.880E+002
 RTBSE|             923           0.140                               0.880E+002
 RTBSE|             924           0.137                               0.880E+002
 RTBSE|             925           0.136                               0.880E+002
 RTBSE|             926           0.139                               0.880E+002
 RTBSE|             927           0.136                               0.880E+002
 RTBSE|             928           0.146                               0.880E+002
 RTBSE|             929           0.146                               0.880E+002
 RTBSE|             930           0.139                               0.880E+002
 RTBSE|             931           0.136                               0.880E+002
 RTBSE|             932           0.158                               0.880E+002
 RTBSE|             933           0.144                               0.880E+002
 RTBSE|             934           0.138                               0.880E+002
 RTBSE|             935           0.138                               0.880E+002
 RTBSE|             936           0.138                               0.880E+002
 RTBSE|             937           0.141                               0.880E+002
 RTBSE|             938           0.140                               0.880E+002
 RTBSE|             939           0.153                               0.880E+002
 RTBSE|             940           0.164                               0.880E+002
 RTBSE|             941           0.139                               0.880E+002
 RTBSE|             942           0.138                               0.880E+002
 RTBSE|             943           0.135                               0.880E+002
 RTBSE|             944           0.143                               0.880E+002
 RTBSE|             945           0.137                               0.880E+002
 RTBSE|             946           0.136                               0.880E+002
 RTBSE|             947           0.181                               0.880E+002
 RTBSE|             948           0.139                               0.880E+002
 RTBSE|             949           0.137                               0.880E+002
 RTBSE|             950           0.137                               0.880E+002
 RTBSE|             951           0.141                               0.880E+002
 RTBSE|             952           0.335                               0.880E+002
 RTBSE|             953           0.155                               0.880E+002
 RTBSE|             954           0.138                               0.880E+002
 RTBSE|             955           0.139                               0.880E+002
 RTBSE|             956           0.137                               0.880E+002
 RTBSE|             957           0.170                               0.880E+002
 RTBSE|             958           0.135                               0.880E+002
 RTBSE|             959           0.139                               0.880E+002
 RTBSE|             960           0.136                               0.880E+002
 RTBSE|             961           0.136                               0.880E+002
 RTBSE|             962           0.136                               0.880E+002
 RTBSE|             963           0.135                               0.880E+002
 RTBSE|             964           0.142                               0.880E+002
 RTBSE|             965           0.139                               0.880E+002
 RTBSE|             966           0.140                               0.880E+002
 RTBSE|             967           0.142                               0.880E+002
 RTBSE|             968           0.139                               0.880E+002
 RTBSE|             969           0.146                               0.880E+002
 RTBSE|             970           0.140                               0.880E+002
 RTBSE|             971           0.135                               0.880E+002
 RTBSE|             972           0.136                               0.880E+002
 RTBSE|             973           0.143                               0.880E+002
 RTBSE|             974           0.137                               0.880E+002
 RTBSE|             975           0.140                               0.880E+002
 RTBSE|             976           0.136                               0.880E+002
 RTBSE|             977           0.137                               0.880E+002
 RTBSE|             978           0.141                               0.880E+002
 RTBSE|             979           0.139                               0.880E+002
 RTBSE|             980           0.150                               0.880E+002
 RTBSE|             981           0.195                               0.880E+002
 RTBSE|             982           0.137                               0.880E+002
 RTBSE|             983           0.139                               0.880E+002
 RTBSE|             984           0.136                               0.880E+002
 RTBSE|             985           0.136                               0.880E+002
 RTBSE|             986           0.147                               0.880E+002
 RTBSE|             987           0.142                               0.880E+002
 RTBSE|             988           0.140                               0.880E+002
 RTBSE|             989           0.136                               0.880E+002
 RTBSE|             990           0.139                               0.880E+002
 RTBSE|             991           0.142                               0.880E+002
 RTBSE|             992           0.139                               0.880E+002
 RTBSE|             993           0.138                               0.880E+002
 RTBSE|             994           0.139                               0.880E+002
 RTBSE|             995           0.135                               0.880E+002
 RTBSE|             996           0.137                               0.880E+002
 RTBSE|             997           0.141                               0.880E+002
 RTBSE|             998           0.143                               0.880E+002
 RTBSE|             999           0.142                               0.880E+002
 RTBSE|            1000           0.146                               0.880E+002
 RTBSE|            1001           0.147                               0.880E+002
 RTBSE|            1002           0.138                               0.880E+002
 RTBSE|            1003           0.141                               0.880E+002
 RTBSE|            1004           0.141                               0.880E+002
 RTBSE|            1005           0.137                               0.880E+002
 RTBSE|            1006           0.143                               0.880E+002
 RTBSE|            1007           0.142                               0.880E+002
 RTBSE|            1008           0.143                               0.880E+002
 RTBSE|            1009           0.135                               0.880E+002
 RTBSE|            1010           0.135                               0.880E+002
 RTBSE|            1011           0.137                               0.880E+002
 RTBSE|            1012           0.141                               0.880E+002
 RTBSE|            1013           0.141                               0.880E+002
 RTBSE|            1014           0.141                               0.880E+002
 RTBSE|            1015           0.142                               0.880E+002
 RTBSE|            1016           0.143                               0.880E+002
 RTBSE|            1017           0.140                               0.880E+002
 RTBSE|            1018           0.145                               0.880E+002
 RTBSE|            1019           0.137                               0.880E+002
 RTBSE|            1020           0.139                               0.880E+002
 RTBSE|            1021           0.137                               0.880E+002
 RTBSE|            1022           0.145                               0.880E+002
 RTBSE|            1023           0.139                               0.880E+002
 RTBSE|            1024           0.139                               0.880E+002
 RTBSE|            1025           0.139                               0.880E+002
 RTBSE|            1026           0.141                               0.880E+002
 RTBSE|            1027           0.137                               0.880E+002
 RTBSE|            1028           0.136                               0.880E+002
 RTBSE|            1029           0.139                               0.880E+002
 RTBSE|            1030           0.140                               0.880E+002
 RTBSE|            1031           0.136                               0.880E+002
 RTBSE|            1032           0.139                               0.880E+002
 RTBSE|            1033           0.155                               0.880E+002
 RTBSE|            1034           0.137                               0.880E+002
 RTBSE|            1035           0.138                               0.880E+002
 RTBSE|            1036           0.136                               0.880E+002
 RTBSE|            1037           0.147                               0.880E+002
 RTBSE|            1038           0.141                               0.880E+002
 RTBSE|            1039           0.142                               0.880E+002
 RTBSE|            1040           0.189                               0.880E+002
 RTBSE|            1041           0.142                               0.880E+002
 RTBSE|            1042           0.139                               0.880E+002
 RTBSE|            1043           0.141                               0.880E+002
 RTBSE|            1044           0.140                               0.880E+002
 RTBSE|            1045           0.137                               0.880E+002
 RTBSE|            1046           0.139                               0.880E+002
 RTBSE|            1047           0.186                               0.880E+002
 RTBSE|            1048           0.138                               0.880E+002
 RTBSE|            1049           0.140                               0.880E+002
 RTBSE|            1050           0.137                               0.880E+002
 RTBSE|            1051           0.137                               0.880E+002
 RTBSE|            1052           0.136                               0.880E+002
 RTBSE|            1053           0.136                               0.880E+002
 RTBSE|            1054           0.161                               0.880E+002
 RTBSE|            1055           0.158                               0.880E+002
 RTBSE|            1056           0.136                               0.880E+002
 RTBSE|            1057           0.138                               0.880E+002
 RTBSE|            1058           0.136                               0.880E+002
 RTBSE|            1059           0.137                               0.880E+002
 RTBSE|            1060           0.144                               0.880E+002
 RTBSE|            1061           0.139                               0.880E+002
 RTBSE|            1062           0.139                               0.880E+002
 RTBSE|            1063           0.144                               0.880E+002
 RTBSE|            1064           0.139                               0.880E+002
 RTBSE|            1065           0.137                               0.880E+002
 RTBSE|            1066           0.139                               0.880E+002
 RTBSE|            1067           0.142                               0.880E+002
 RTBSE|            1068           0.140                               0.880E+002
 RTBSE|            1069           0.139                               0.880E+002
 RTBSE|            1070           0.138                               0.880E+002
 RTBSE|            1071           0.163                               0.880E+002
 RTBSE|            1072           0.141                               0.880E+002
 RTBSE|            1073           0.136                               0.880E+002
 RTBSE|            1074           0.139                               0.880E+002
 RTBSE|            1075           0.139                               0.880E+002
 RTBSE|            1076           0.140                               0.880E+002
 RTBSE|            1077           0.136                               0.880E+002
 RTBSE|            1078           0.136                               0.880E+002
 RTBSE|            1079           0.136                               0.880E+002
 RTBSE|            1080           0.139                               0.880E+002
 RTBSE|            1081           0.141                               0.880E+002
 RTBSE|            1082           0.174                               0.880E+002
 RTBSE|            1083           0.190                               0.880E+002
 RTBSE|            1084           0.136                               0.880E+002
 RTBSE|            1085           0.137                               0.880E+002
 RTBSE|            1086           0.136                               0.880E+002
 RTBSE|            1087           0.138                               0.880E+002
 RTBSE|            1088           0.136                               0.880E+002
 RTBSE|            1089           0.138                               0.880E+002
 RTBSE|            1090           0.137                               0.880E+002
 RTBSE|            1091           0.139                               0.880E+002
 RTBSE|            1092           0.137                               0.880E+002
 RTBSE|            1093           0.141                               0.880E+002
 RTBSE|            1094           0.139                               0.880E+002
 RTBSE|            1095           0.135                               0.880E+002
 RTBSE|            1096           0.136                               0.880E+002
 RTBSE|            1097           0.135                               0.880E+002
 RTBSE|            1098           0.137                               0.880E+002
 RTBSE|            1099           0.140                               0.880E+002
 RTBSE|            1100           0.139                               0.880E+002
 RTBSE|            1101           0.135                               0.880E+002
 RTBSE|            1102           0.136                               0.880E+002
 RTBSE|            1103           0.141                               0.880E+002
 RTBSE|            1104           0.135                               0.880E+002
 RTBSE|            1105           0.141                               0.880E+002
 RTBSE|            1106           0.143                               0.880E+002
 RTBSE|            1107           0.138                               0.880E+002
 RTBSE|            1108           0.170                               0.880E+002
 RTBSE|            1109           0.138                               0.880E+002
 RTBSE|            1110           0.137                               0.880E+002
 RTBSE|            1111           0.137                               0.880E+002
 RTBSE|            1112           0.144                               0.880E+002
 RTBSE|            1113           0.136                               0.880E+002
 RTBSE|            1114           0.143                               0.880E+002
 RTBSE|            1115           0.137                               0.880E+002
 RTBSE|            1116           0.140                               0.880E+002
 RTBSE|            1117           0.136                               0.880E+002
 RTBSE|            1118           0.144                               0.880E+002
 RTBSE|            1119           0.144                               0.880E+002
 RTBSE|            1120           0.138                               0.880E+002
 RTBSE|            1121           0.140                               0.880E+002
 RTBSE|            1122           0.138                               0.880E+002
 RTBSE|            1123           0.148                               0.880E+002
 RTBSE|            1124           0.136                               0.880E+002
 RTBSE|            1125           0.139                               0.880E+002
 RTBSE|            1126           0.137                               0.880E+002
 RTBSE|            1127           0.137                               0.880E+002
 RTBSE|            1128           0.141                               0.880E+002
 RTBSE|            1129           0.139                               0.880E+002
 RTBSE|            1130           0.142                               0.880E+002
 RTBSE|            1131           0.137                               0.880E+002
 RTBSE|            1132           0.137                               0.880E+002
 RTBSE|            1133           0.145                               0.880E+002
 RTBSE|            1134           0.137                               0.880E+002
 RTBSE|            1135           0.145                               0.880E+002
 RTBSE|            1136           0.141                               0.880E+002
 RTBSE|            1137           0.140                               0.880E+002
 RTBSE|            1138           0.141                               0.880E+002
 RTBSE|            1139           0.140                               0.880E+002
 RTBSE|            1140           0.140                               0.880E+002
 RTBSE|            1141           0.148                               0.880E+002
 RTBSE|            1142           0.145                               0.880E+002
 RTBSE|            1143           0.139                               0.880E+002
 RTBSE|            1144           0.139                               0.880E+002
 RTBSE|            1145           0.139                               0.880E+002
 RTBSE|            1146           0.142                               0.880E+002
 RTBSE|            1147           0.142                               0.880E+002
 RTBSE|            1148           0.136                               0.880E+002
 RTBSE|            1149           0.145                               0.880E+002
 RTBSE|            1150           0.141                               0.880E+002
 RTBSE|            1151           0.136                               0.880E+002
 RTBSE|            1152           0.136                               0.880E+002
 RTBSE|            1153           0.141                               0.880E+002
 RTBSE|            1154           0.137                               0.880E+002
 RTBSE|            1155           0.137                               0.880E+002
 RTBSE|            1156           0.135                               0.880E+002
 RTBSE|            1157           0.140                               0.880E+002
 RTBSE|            1158           0.138                               0.880E+002
 RTBSE|            1159           0.140                               0.880E+002
 RTBSE|            1160           0.196                               0.880E+002
 RTBSE|            1161           0.197                               0.880E+002
 RTBSE|            1162           0.176                               0.880E+002
 RTBSE|            1163           0.138                               0.880E+002
 RTBSE|            1164           0.144                               0.880E+002
 RTBSE|            1165           0.331                               0.880E+002
 RTBSE|            1166           0.200                               0.880E+002
 RTBSE|            1167           0.170                               0.880E+002
 RTBSE|            1168           0.148                               0.880E+002
 RTBSE|            1169           0.138                               0.880E+002
 RTBSE|            1170           0.137                               0.880E+002
 RTBSE|            1171           0.136                               0.880E+002
 RTBSE|            1172           0.141                               0.880E+002
 RTBSE|            1173           0.146                               0.880E+002
 RTBSE|            1174           0.139                               0.880E+002
 RTBSE|            1175           0.151                               0.880E+002
 RTBSE|            1176           0.136                               0.880E+002
 RTBSE|            1177           0.139                               0.880E+002
 RTBSE|            1178           0.145                               0.880E+002
 RTBSE|            1179           0.141                               0.880E+002
 RTBSE|            1180           0.138                               0.880E+002
 RTBSE|            1181           0.141                               0.880E+002
 RTBSE|            1182           0.137                               0.880E+002
 RTBSE|            1183           0.136                               0.880E+002
 RTBSE|            1184           0.147                               0.880E+002
 RTBSE|            1185           0.136                               0.880E+002
 RTBSE|            1186           0.140                               0.880E+002
 RTBSE|            1187           0.145                               0.880E+002
 RTBSE|            1188           0.142                               0.880E+002
 RTBSE|            1189           0.143                               0.880E+002
 RTBSE|            1190           0.136                               0.880E+002
 RTBSE|            1191           0.138                               0.880E+002
 RTBSE|            1192           0.140                               0.880E+002
 RTBSE|            1193           0.136                               0.880E+002
 RTBSE|            1194           0.139                               0.880E+002
 RTBSE|            1195           0.142                               0.880E+002
 RTBSE|            1196           0.138                               0.880E+002
 RTBSE|            1197           0.140                               0.880E+002
 RTBSE|            1198           0.138                               0.880E+002
 RTBSE|            1199           0.143                               0.880E+002
 RTBSE|            1200           0.139                               0.880E+002
 RTBSE|            1201           0.143                               0.880E+002
 RTBSE|            1202           0.143                               0.880E+002
 RTBSE|            1203           0.137                               0.880E+002
 RTBSE|            1204           0.139                               0.880E+002
 RTBSE|            1205           0.136                               0.880E+002
 RTBSE|            1206           0.139                               0.880E+002
 RTBSE|            1207           0.136                               0.880E+002
 RTBSE|            1208           0.147                               0.880E+002
 RTBSE|            1209           0.136                               0.880E+002
 RTBSE|            1210           0.138                               0.880E+002
 RTBSE|            1211           0.140                               0.880E+002
 RTBSE|            1212           0.138                               0.880E+002
 RTBSE|            1213           0.139                               0.880E+002
 RTBSE|            1214           0.136                               0.880E+002
 RTBSE|            1215           0.139                               0.880E+002
 RTBSE|            1216           0.139                               0.880E+002
 RTBSE|            1217           0.138                               0.880E+002
 RTBSE|            1218           0.140                               0.880E+002
 RTBSE|            1219           0.136                               0.880E+002
 RTBSE|            1220           0.143                               0.880E+002
 RTBSE|            1221           0.136                               0.880E+002
 RTBSE|            1222           0.138                               0.880E+002
 RTBSE|            1223           0.146                               0.880E+002
 RTBSE|            1224           0.138                               0.880E+002
 RTBSE|            1225           0.136                               0.880E+002
 RTBSE|            1226           0.144                               0.880E+002
 RTBSE|            1227           0.138                               0.880E+002
 RTBSE|            1228           0.139                               0.880E+002
 RTBSE|            1229           0.138                               0.880E+002
 RTBSE|            1230           0.136                               0.880E+002
 RTBSE|            1231           0.146                               0.880E+002
 RTBSE|            1232           0.138                               0.880E+002
 RTBSE|            1233           0.139                               0.880E+002
 RTBSE|            1234           0.144                               0.880E+002
 RTBSE|            1235           0.139                               0.880E+002
 RTBSE|            1236           0.142                               0.880E+002
 RTBSE|            1237           0.137                               0.880E+002
 RTBSE|            1238           0.136                               0.880E+002
 RTBSE|            1239           0.136                               0.880E+002
 RTBSE|            1240           0.142                               0.880E+002
 RTBSE|            1241           0.140                               0.880E+002
 RTBSE|            1242           0.138                               0.880E+002
 RTBSE|            1243           0.141                               0.880E+002
 RTBSE|            1244           0.136                               0.880E+002
 RTBSE|            1245           0.138                               0.880E+002
 RTBSE|            1246           0.153                               0.880E+002
 RTBSE|            1247           0.138                               0.880E+002
 RTBSE|            1248           0.138                               0.880E+002
 RTBSE|            1249           0.136                               0.880E+002
 RTBSE|            1250           0.142                               0.880E+002
 RTBSE|            1251           0.136                               0.880E+002
 RTBSE|            1252           0.136                               0.880E+002
 RTBSE|            1253           0.136                               0.880E+002
 RTBSE|            1254           0.141                               0.880E+002
 RTBSE|            1255           0.140                               0.880E+002
 RTBSE|            1256           0.137                               0.880E+002
 RTBSE|            1257           0.144                               0.880E+002
 RTBSE|            1258           0.140                               0.880E+002
 RTBSE|            1259           0.138                               0.880E+002
 RTBSE|            1260           0.142                               0.880E+002
 RTBSE|            1261           0.139                               0.880E+002
 RTBSE|            1262           0.138                               0.880E+002
 RTBSE|            1263           0.136                               0.880E+002
 RTBSE|            1264           0.148                               0.880E+002
 RTBSE|            1265           0.140                               0.880E+002
 RTBSE|            1266           0.137                               0.880E+002
 RTBSE|            1267           0.136                               0.880E+002
 RTBSE|            1268           0.139                               0.880E+002
 RTBSE|            1269           0.136                               0.880E+002
 RTBSE|            1270           0.136                               0.880E+002
 RTBSE|            1271           0.138                               0.880E+002
 RTBSE|            1272           0.137                               0.880E+002
 RTBSE|            1273           0.146                               0.880E+002
 RTBSE|            1274           0.138                               0.880E+002
 RTBSE|            1275           0.136                               0.880E+002
 RTBSE|            1276           0.145                               0.880E+002
 RTBSE|            1277           0.136                               0.880E+002
 RTBSE|            1278           0.146                               0.880E+002
 RTBSE|            1279           0.138                               0.880E+002
 RTBSE|            1280           0.141                               0.880E+002
 RTBSE|            1281           0.141                               0.880E+002
 RTBSE|            1282           0.139                               0.880E+002
 RTBSE|            1283           0.136                               0.880E+002
 RTBSE|            1284           0.142                               0.880E+002
 RTBSE|            1285           0.140                               0.880E+002
 RTBSE|            1286           0.137                               0.880E+002
 RTBSE|            1287           0.142                               0.880E+002
 RTBSE|            1288           0.140                               0.880E+002
 RTBSE|            1289           0.140                               0.880E+002
 RTBSE|            1290           0.141                               0.880E+002
 RTBSE|            1291           0.143                               0.880E+002
 RTBSE|            1292           0.137                               0.880E+002
 RTBSE|            1293           0.136                               0.880E+002
 RTBSE|            1294           0.144                               0.880E+002
 RTBSE|            1295           0.145                               0.880E+002
 RTBSE|            1296           0.141                               0.880E+002
 RTBSE|            1297           0.137                               0.880E+002
 RTBSE|            1298           0.137                               0.880E+002
 RTBSE|            1299           0.137                               0.880E+002
 RTBSE|            1300           0.136                               0.880E+002
 RTBSE|            1301           0.145                               0.880E+002
 RTBSE|            1302           0.140                               0.880E+002
 RTBSE|            1303           0.142                               0.880E+002
 RTBSE|            1304           0.137                               0.880E+002
 RTBSE|            1305           0.137                               0.880E+002
 RTBSE|            1306           0.143                               0.880E+002
 RTBSE|            1307           0.137                               0.880E+002
 RTBSE|            1308           0.140                               0.880E+002
 RTBSE|            1309           0.141                               0.880E+002
 RTBSE|            1310           0.145                               0.880E+002
 RTBSE|            1311           0.144                               0.880E+002
 RTBSE|            1312           0.136                               0.880E+002
 RTBSE|            1313           0.144                               0.880E+002
 RTBSE|            1314           0.150                               0.880E+002
 RTBSE|            1315           0.145                               0.880E+002
 RTBSE|            1316           0.146                               0.880E+002
 RTBSE|            1317           0.140                               0.880E+002
 RTBSE|            1318           0.145                               0.880E+002
 RTBSE|            1319           0.142                               0.880E+002
 RTBSE|            1320           0.146                               0.880E+002
 RTBSE|            1321           0.141                               0.880E+002
 RTBSE|            1322           0.160                               0.880E+002
 RTBSE|            1323           0.136                               0.880E+002
 RTBSE|            1324           0.139                               0.880E+002
 RTBSE|            1325           0.138                               0.880E+002
 RTBSE|            1326           0.145                               0.880E+002
 RTBSE|            1327           0.142                               0.880E+002
 RTBSE|            1328           0.139                               0.880E+002
 RTBSE|            1329           0.181                               0.880E+002
 RTBSE|            1330           0.136                               0.880E+002
 RTBSE|            1331           0.146                               0.880E+002
 RTBSE|            1332           0.143                               0.880E+002
 RTBSE|            1333           0.138                               0.880E+002
 RTBSE|            1334           0.144                               0.880E+002
 RTBSE|            1335           0.138                               0.880E+002
 RTBSE|            1336           0.186                               0.880E+002
 RTBSE|            1337           0.139                               0.880E+002
 RTBSE|            1338           0.143                               0.880E+002
 RTBSE|            1339           0.138                               0.880E+002
 RTBSE|            1340           0.140                               0.880E+002
 RTBSE|            1341           0.136                               0.880E+002
 RTBSE|            1342           0.139                               0.880E+002
 RTBSE|            1343           0.178                               0.880E+002
 RTBSE|            1344           0.142                               0.880E+002
 RTBSE|            1345           0.138                               0.880E+002
 RTBSE|            1346           0.144                               0.880E+002
 RTBSE|            1347           0.145                               0.880E+002
 RTBSE|            1348           0.142                               0.880E+002
 RTBSE|            1349           0.142                               0.880E+002
 RTBSE|            1350           0.136                               0.880E+002
 RTBSE|            1351           0.138                               0.880E+002
 RTBSE|            1352           0.137                               0.880E+002
 RTBSE|            1353           0.144                               0.880E+002
 RTBSE|            1354           0.139                               0.880E+002
 RTBSE|            1355           0.143                               0.880E+002
 RTBSE|            1356           0.140                               0.880E+002
 RTBSE|            1357           0.151                               0.880E+002
 RTBSE|            1358           0.138                               0.880E+002
 RTBSE|            1359           0.141                               0.880E+002
 RTBSE|            1360           0.140                               0.880E+002
 RTBSE|            1361           0.137                               0.880E+002
 RTBSE|            1362           0.141                               0.880E+002
 RTBSE|            1363           0.137                               0.880E+002
 RTBSE|            1364           0.140                               0.880E+002
 RTBSE|            1365           0.136                               0.880E+002
 RTBSE|            1366           0.298                               0.880E+002
 RTBSE|            1367           0.178                               0.880E+002
 RTBSE|            1368           0.138                               0.880E+002
 RTBSE|            1369           0.209                               0.880E+002
 RTBSE|            1370           0.149                               0.880E+002
 RTBSE|            1371           0.171                               0.880E+002
 RTBSE|            1372           0.139                               0.880E+002
 RTBSE|            1373           0.147                               0.880E+002
 RTBSE|            1374           0.142                               0.880E+002
 RTBSE|            1375           0.139                               0.880E+002
 RTBSE|            1376           0.137                               0.880E+002
 RTBSE|            1377           0.146                               0.880E+002
 RTBSE|            1378           0.141                               0.880E+002
 RTBSE|            1379           0.146                               0.880E+002
 RTBSE|            1380           0.141                               0.880E+002
 RTBSE|            1381           0.136                               0.880E+002
 RTBSE|            1382           0.140                               0.880E+002
 RTBSE|            1383           0.147                               0.880E+002
 RTBSE|            1384           0.141                               0.880E+002
 RTBSE|            1385           0.139                               0.880E+002
 RTBSE|            1386           0.141                               0.880E+002
 RTBSE|            1387           0.143                               0.880E+002
 RTBSE|            1388           0.136                               0.880E+002
 RTBSE|            1389           0.137                               0.880E+002
 RTBSE|            1390           0.140                               0.880E+002
 RTBSE|            1391           0.146                               0.880E+002
 RTBSE|            1392           0.145                               0.880E+002
 RTBSE|            1393           0.137                               0.880E+002
 RTBSE|            1394           0.137                               0.880E+002
 RTBSE|            1395           0.140                               0.880E+002
 RTBSE|            1396           0.142                               0.880E+002
 RTBSE|            1397           0.145                               0.880E+002
 RTBSE|            1398           0.136                               0.880E+002
 RTBSE|            1399           0.136                               0.880E+002
 RTBSE|            1400           0.148                               0.880E+002
 RTBSE|            1401           0.136                               0.880E+002
 RTBSE|            1402           0.139                               0.880E+002
 RTBSE|            1403           0.145                               0.880E+002
 RTBSE|            1404           0.143                               0.880E+002
 RTBSE|            1405           0.136                               0.880E+002
 RTBSE|            1406           0.140                               0.880E+002
 RTBSE|            1407           0.136                               0.880E+002
 RTBSE|            1408           0.137                               0.880E+002
 RTBSE|            1409           0.143                               0.880E+002
 RTBSE|            1410           0.142                               0.880E+002
 RTBSE|            1411           0.138                               0.880E+002
 RTBSE|            1412           0.143                               0.880E+002
 RTBSE|            1413           0.141                               0.880E+002
 RTBSE|            1414           0.136                               0.880E+002
 RTBSE|            1415           0.147                               0.880E+002
 RTBSE|            1416           0.138                               0.880E+002
 RTBSE|            1417           0.138                               0.880E+002
 RTBSE|            1418           0.137                               0.880E+002
 RTBSE|            1419           0.161                               0.880E+002
 RTBSE|            1420           0.139                               0.880E+002
 RTBSE|            1421           0.139                               0.880E+002
 RTBSE|            1422           0.145                               0.880E+002
 RTBSE|            1423           0.140                               0.880E+002
 RTBSE|            1424           0.145                               0.880E+002
 RTBSE|            1425           0.142                               0.880E+002
 RTBSE|            1426           0.192                               0.880E+002
 RTBSE|            1427           0.138                               0.880E+002
 RTBSE|            1428           0.146                               0.880E+002
 RTBSE|            1429           0.144                               0.880E+002
 RTBSE|            1430           0.139                               0.880E+002
 RTBSE|            1431           0.136                               0.880E+002
 RTBSE|            1432           0.143                               0.880E+002
 RTBSE|            1433           0.186                               0.880E+002
 RTBSE|            1434           0.148                               0.880E+002
 RTBSE|            1435           0.146                               0.880E+002
 RTBSE|            1436           0.139                               0.880E+002
 RTBSE|            1437           0.138                               0.880E+002
 RTBSE|            1438           0.138                               0.880E+002
 RTBSE|            1439           0.139                               0.880E+002
 RTBSE|            1440           0.189                               0.880E+002
 RTBSE|            1441           0.140                               0.880E+002
 RTBSE|            1442           0.141                               0.880E+002
 RTBSE|            1443           0.142                               0.880E+002
 RTBSE|            1444           0.140                               0.880E+002
 RTBSE|            1445           0.143                               0.880E+002
 RTBSE|            1446           0.140                               0.880E+002
 RTBSE|            1447           0.144                               0.880E+002
 RTBSE|            1448           0.140                               0.880E+002
 RTBSE|            1449           0.148                               0.880E+002
 RTBSE|            1450           0.136                               0.880E+002
 RTBSE|            1451           0.138                               0.880E+002
 RTBSE|            1452           0.146                               0.880E+002
 RTBSE|            1453           0.150                               0.880E+002
 RTBSE|            1454           0.141                               0.880E+002
 RTBSE|            1455           0.144                               0.880E+002
 RTBSE|            1456           0.140                               0.880E+002
 RTBSE|            1457           0.146                               0.880E+002
 RTBSE|            1458           0.140                               0.880E+002
 RTBSE|            1459           0.138                               0.880E+002
 RTBSE|            1460           0.143                               0.880E+002
 RTBSE|            1461           0.142                               0.880E+002
 RTBSE|            1462           0.142                               0.880E+002
 RTBSE|            1463           0.141                               0.880E+002
 RTBSE|            1464           0.146                               0.880E+002
 RTBSE|            1465           0.148                               0.880E+002
 RTBSE|            1466           0.143                               0.880E+002
 RTBSE|            1467           0.182                               0.880E+002
 RTBSE|            1468           0.167                               0.880E+002
 RTBSE|            1469           0.137                               0.880E+002
 RTBSE|            1470           0.147                               0.880E+002
 RTBSE|            1471           0.142                               0.880E+002
 RTBSE|            1472           0.142                               0.880E+002
 RTBSE|            1473           0.136                               0.880E+002
 RTBSE|            1474           0.137                               0.880E+002
 RTBSE|            1475           0.146                               0.880E+002
 RTBSE|            1476           0.136                               0.880E+002
 RTBSE|            1477           0.139                               0.880E+002
 RTBSE|            1478           0.141                               0.880E+002
 RTBSE|            1479           0.136                               0.880E+002
 RTBSE|            1480           0.136                               0.880E+002
 RTBSE|            1481           0.140                               0.880E+002
 RTBSE|            1482           0.139                               0.880E+002
 RTBSE|            1483           0.168                               0.880E+002
 RTBSE|            1484           0.143                               0.880E+002
 RTBSE|            1485           0.141                               0.880E+002
 RTBSE|            1486           0.140                               0.880E+002
 RTBSE|            1487           0.144                               0.880E+002
 RTBSE|            1488           0.136                               0.880E+002
 RTBSE|            1489           0.136                               0.880E+002
 RTBSE|            1490           0.142                               0.880E+002
 RTBSE|            1491           0.141                               0.880E+002
 RTBSE|            1492           0.141                               0.880E+002
 RTBSE|            1493           0.141                               0.880E+002
 RTBSE|            1494           0.141                               0.880E+002
 RTBSE|            1495           0.137                               0.880E+002
 RTBSE|            1496           0.137                               0.880E+002
 RTBSE|            1497           0.142                               0.880E+002
 RTBSE|            1498           0.142                               0.880E+002
 RTBSE|            1499           0.137                               0.880E+002
 RTBSE|            1500           0.144                               0.880E+002
 RTBSE|            1501           0.136                               0.880E+002
 RTBSE|            1502           0.149                               0.880E+002
 RTBSE|            1503           0.138                               0.880E+002
 RTBSE|            1504           0.143                               0.880E+002
 RTBSE|            1505           0.138                               0.880E+002
 RTBSE|            1506           0.145                               0.880E+002
 RTBSE|            1507           0.140                               0.880E+002
 RTBSE|            1508           0.141                               0.880E+002
 RTBSE|            1509           0.138                               0.880E+002
 RTBSE|            1510           0.142                               0.880E+002
 RTBSE|            1511           0.140                               0.880E+002
 RTBSE|            1512           0.136                               0.880E+002
 RTBSE|            1513           0.147                               0.880E+002
 RTBSE|            1514           0.147                               0.880E+002
 RTBSE|            1515           0.143                               0.880E+002
 RTBSE|            1516           0.141                               0.880E+002
 RTBSE|            1517           0.136                               0.880E+002
 RTBSE|            1518           0.143                               0.880E+002
 RTBSE|            1519           0.136                               0.880E+002
 RTBSE|            1520           0.138                               0.880E+002
 RTBSE|            1521           0.164                               0.880E+002
 RTBSE|            1522           0.139                               0.880E+002
 RTBSE|            1523           0.146                               0.880E+002
 RTBSE|            1524           0.144                               0.880E+002
 RTBSE|            1525           0.142                               0.880E+002
 RTBSE|            1526           0.136                               0.880E+002
 RTBSE|            1527           0.140                               0.880E+002
 RTBSE|            1528           0.144                               0.880E+002
 RTBSE|            1529           0.145                               0.880E+002
 RTBSE|            1530           0.142                               0.880E+002
 RTBSE|            1531           0.140                               0.880E+002
 RTBSE|            1532           0.138                               0.880E+002
 RTBSE|            1533           0.139                               0.880E+002
 RTBSE|            1534           0.145                               0.880E+002
 RTBSE|            1535           0.139                               0.880E+002
 RTBSE|            1536           0.138                               0.880E+002
 RTBSE|            1537           0.142                               0.880E+002
 RTBSE|            1538           0.136                               0.880E+002
 RTBSE|            1539           0.136                               0.880E+002
 RTBSE|            1540           0.138                               0.880E+002
 RTBSE|            1541           0.141                               0.880E+002
 RTBSE|            1542           0.137                               0.880E+002
 RTBSE|            1543           0.137                               0.880E+002
 RTBSE|            1544           0.143                               0.880E+002
 RTBSE|            1545           0.141                               0.880E+002
 RTBSE|            1546           0.137                               0.880E+002
 RTBSE|            1547           0.136                               0.880E+002
 RTBSE|            1548           0.140                               0.880E+002
 RTBSE|            1549           0.141                               0.880E+002
 RTBSE|            1550           0.136                               0.880E+002
 RTBSE|            1551           0.136                               0.880E+002
 RTBSE|            1552           0.139                               0.880E+002
 RTBSE|            1553           0.149                               0.880E+002
 RTBSE|            1554           0.137                               0.880E+002
 RTBSE|            1555           0.136                               0.880E+002
 RTBSE|            1556           0.142                               0.880E+002
 RTBSE|            1557           0.144                               0.880E+002
 RTBSE|            1558           0.137                               0.880E+002
 RTBSE|            1559           0.141                               0.880E+002
 RTBSE|            1560           0.141                               0.880E+002
 RTBSE|            1561           0.144                               0.880E+002
 RTBSE|            1562           0.140                               0.880E+002
 RTBSE|            1563           0.145                               0.880E+002
 RTBSE|            1564           0.136                               0.880E+002
 RTBSE|            1565           0.136                               0.880E+002
 RTBSE|            1566           0.141                               0.880E+002
 RTBSE|            1567           0.144                               0.880E+002
 RTBSE|            1568           0.137                               0.880E+002
 RTBSE|            1569           0.141                               0.880E+002
 RTBSE|            1570           0.137                               0.880E+002
 RTBSE|            1571           0.143                               0.880E+002
 RTBSE|            1572           0.171                               0.880E+002
 RTBSE|            1573           0.146                               0.880E+002
 RTBSE|            1574           0.145                               0.880E+002
 RTBSE|            1575           0.141                               0.880E+002
 RTBSE|            1576           0.137                               0.880E+002
 RTBSE|            1577           0.137                               0.880E+002
 RTBSE|            1578           0.285                               0.880E+002
 RTBSE|            1579           0.169                               0.880E+002
 RTBSE|            1580           0.143                               0.880E+002
 RTBSE|            1581           0.142                               0.880E+002
 RTBSE|            1582           0.141                               0.880E+002
 RTBSE|            1583           0.142                               0.880E+002
 RTBSE|            1584           0.146                               0.880E+002
 RTBSE|            1585           0.137                               0.880E+002
 RTBSE|            1586           0.145                               0.880E+002
 RTBSE|            1587           0.148                               0.880E+002
 RTBSE|            1588           0.143                               0.880E+002
 RTBSE|            1589           0.146                               0.880E+002
 RTBSE|            1590           0.141                               0.880E+002
 RTBSE|            1591           0.143                               0.880E+002
 RTBSE|            1592           0.141                               0.880E+002
 RTBSE|            1593           0.148                               0.880E+002
 RTBSE|            1594           0.156                               0.880E+002
 RTBSE|            1595           0.144                               0.880E+002
 RTBSE|            1596           0.138                               0.880E+002
 RTBSE|            1597           0.147                               0.880E+002
 RTBSE|            1598           0.140                               0.880E+002
 RTBSE|            1599           0.141                               0.880E+002
 RTBSE|            1600           0.141                               0.880E+002
 RTBSE|            1601           0.148                               0.880E+002
 RTBSE|            1602           0.145                               0.880E+002
 RTBSE|            1603           0.137                               0.880E+002
 RTBSE|            1604           0.141                               0.880E+002
 RTBSE|            1605           0.144                               0.880E+002
 RTBSE|            1606           0.142                               0.880E+002
 RTBSE|            1607           0.148                               0.880E+002
 RTBSE|            1608           0.146                               0.880E+002
 RTBSE|            1609           0.149                               0.880E+002
 RTBSE|            1610           0.140                               0.880E+002
 RTBSE|            1611           0.144                               0.880E+002
 RTBSE|            1612           0.141                               0.880E+002
 RTBSE|            1613           0.141                               0.880E+002
 RTBSE|            1614           0.144                               0.880E+002
 RTBSE|            1615           0.143                               0.880E+002
 RTBSE|            1616           0.141                               0.880E+002
 RTBSE|            1617           0.136                               0.880E+002
 RTBSE|            1618           0.145                               0.880E+002
 RTBSE|            1619           0.144                               0.880E+002
 RTBSE|            1620           0.138                               0.880E+002
 RTBSE|            1621           0.146                               0.880E+002
 RTBSE|            1622           0.144                               0.880E+002
 RTBSE|            1623           0.139                               0.880E+002
 RTBSE|            1624           0.146                               0.880E+002
 RTBSE|            1625           0.146                               0.880E+002
 RTBSE|            1626           0.137                               0.880E+002
 RTBSE|            1627           0.141                               0.880E+002
 RTBSE|            1628           0.144                               0.880E+002
 RTBSE|            1629           0.143                               0.880E+002
 RTBSE|            1630           0.143                               0.880E+002
 RTBSE|            1631           0.142                               0.880E+002
 RTBSE|            1632           0.139                               0.880E+002
 RTBSE|            1633           0.142                               0.880E+002
 RTBSE|            1634           0.139                               0.880E+002
 RTBSE|            1635           0.143                               0.880E+002
 RTBSE|            1636           0.150                               0.880E+002
 RTBSE|            1637           0.136                               0.880E+002
 RTBSE|            1638           0.142                               0.880E+002
 RTBSE|            1639           0.147                               0.880E+002
 RTBSE|            1640           0.137                               0.880E+002
 RTBSE|            1641           0.148                               0.880E+002
 RTBSE|            1642           0.136                               0.880E+002
 RTBSE|            1643           0.143                               0.880E+002
 RTBSE|            1644           0.145                               0.880E+002
 RTBSE|            1645           0.141                               0.880E+002
 RTBSE|            1646           0.142                               0.880E+002
 RTBSE|            1647           0.141                               0.880E+002
 RTBSE|            1648           0.143                               0.880E+002
 RTBSE|            1649           0.145                               0.880E+002
 RTBSE|            1650           0.141                               0.880E+002
 RTBSE|            1651           0.148                               0.880E+002
 RTBSE|            1652           0.141                               0.880E+002
 RTBSE|            1653           0.139                               0.880E+002
 RTBSE|            1654           0.138                               0.880E+002
 RTBSE|            1655           0.140                               0.880E+002
 RTBSE|            1656           0.152                               0.880E+002
 RTBSE|            1657           0.150                               0.880E+002
 RTBSE|            1658           0.143                               0.880E+002
 RTBSE|            1659           0.139                               0.880E+002
 RTBSE|            1660           0.148                               0.880E+002
 RTBSE|            1661           0.147                               0.880E+002
 RTBSE|            1662           0.140                               0.880E+002
 RTBSE|            1663           0.138                               0.880E+002
 RTBSE|            1664           0.138                               0.880E+002
 RTBSE|            1665           0.137                               0.880E+002
 RTBSE|            1666           0.148                               0.880E+002
 RTBSE|            1667           0.141                               0.880E+002
 RTBSE|            1668           0.142                               0.880E+002
 RTBSE|            1669           0.140                               0.880E+002
 RTBSE|            1670           0.143                               0.880E+002
 RTBSE|            1671           0.142                               0.880E+002
 RTBSE|            1672           0.137                               0.880E+002
 RTBSE|            1673           0.139                               0.880E+002
 RTBSE|            1674           0.143                               0.880E+002
 RTBSE|            1675           0.142                               0.880E+002
 RTBSE|            1676           0.154                               0.880E+002
 RTBSE|            1677           0.139                               0.880E+002
 RTBSE|            1678           0.141                               0.880E+002
 RTBSE|            1679           0.143                               0.880E+002
 RTBSE|            1680           0.136                               0.880E+002
 RTBSE|            1681           0.138                               0.880E+002
 RTBSE|            1682           0.142                               0.880E+002
 RTBSE|            1683           0.140                               0.880E+002
 RTBSE|            1684           0.141                               0.880E+002
 RTBSE|            1685           0.142                               0.880E+002
 RTBSE|            1686           0.137                               0.880E+002
 RTBSE|            1687           0.136                               0.880E+002
 RTBSE|            1688           0.136                               0.880E+002
 RTBSE|            1689           0.136                               0.880E+002
 RTBSE|            1690           0.147                               0.880E+002
 RTBSE|            1691           0.136                               0.880E+002
 RTBSE|            1692           0.136                               0.880E+002
 RTBSE|            1693           0.137                               0.880E+002
 RTBSE|            1694           0.146                               0.880E+002
 RTBSE|            1695           0.137                               0.880E+002
 RTBSE|            1696           0.138                               0.880E+002
 RTBSE|            1697           0.141                               0.880E+002
 RTBSE|            1698           0.137                               0.880E+002
 RTBSE|            1699           0.137                               0.880E+002
 RTBSE|            1700           0.141                               0.880E+002
 RTBSE|            1701           0.136                               0.880E+002
 RTBSE|            1702           0.137                               0.880E+002
 RTBSE|            1703           0.140                               0.880E+002
 RTBSE|            1704           0.146                               0.880E+002
 RTBSE|            1705           0.143                               0.880E+002
 RTBSE|            1706           0.146                               0.880E+002
 RTBSE|            1707           0.138                               0.880E+002
 RTBSE|            1708           0.147                               0.880E+002
 RTBSE|            1709           0.139                               0.880E+002
 RTBSE|            1710           0.143                               0.880E+002
 RTBSE|            1711           0.140                               0.880E+002
 RTBSE|            1712           0.140                               0.880E+002
 RTBSE|            1713           0.141                               0.880E+002
 RTBSE|            1714           0.144                               0.880E+002
 RTBSE|            1715           0.142                               0.880E+002
 RTBSE|            1716           0.147                               0.880E+002
 RTBSE|            1717           0.137                               0.880E+002
 RTBSE|            1718           0.145                               0.880E+002
 RTBSE|            1719           0.161                               0.880E+002
 RTBSE|            1720           0.143                               0.880E+002
 RTBSE|            1721           0.141                               0.880E+002
 RTBSE|            1722           0.136                               0.880E+002
 RTBSE|            1723           0.140                               0.880E+002
 RTBSE|            1724           0.145                               0.880E+002
 RTBSE|            1725           0.148                               0.880E+002
 RTBSE|            1726           0.186                               0.880E+002
 RTBSE|            1727           0.148                               0.880E+002
 RTBSE|            1728           0.142                               0.880E+002
 RTBSE|            1729           0.149                               0.880E+002
 RTBSE|            1730           0.140                               0.880E+002
 RTBSE|            1731           0.141                               0.880E+002
 RTBSE|            1732           0.144                               0.880E+002
 RTBSE|            1733           0.189                               0.880E+002
 RTBSE|            1734           0.142                               0.880E+002
 RTBSE|            1735           0.151                               0.880E+002
 RTBSE|            1736           0.139                               0.880E+002
 RTBSE|            1737           0.138                               0.880E+002
 RTBSE|            1738           0.138                               0.880E+002
 RTBSE|            1739           0.170                               0.880E+002
 RTBSE|            1740           0.175                               0.880E+002
 RTBSE|            1741           0.142                               0.880E+002
 RTBSE|            1742           0.143                               0.880E+002
 RTBSE|            1743           0.136                               0.880E+002
 RTBSE|            1744           0.140                               0.880E+002
 RTBSE|            1745           0.137                               0.880E+002
 RTBSE|            1746           0.140                               0.880E+002
 RTBSE|            1747           0.143                               0.880E+002
 RTBSE|            1748           0.146                               0.880E+002
 RTBSE|            1749           0.147                               0.880E+002
 RTBSE|            1750           0.148                               0.880E+002
 RTBSE|            1751           0.144                               0.880E+002
 RTBSE|            1752           0.143                               0.880E+002
 RTBSE|            1753           0.142                               0.880E+002
 RTBSE|            1754           0.139                               0.880E+002
 RTBSE|            1755           0.137                               0.880E+002
 RTBSE|            1756           0.137                               0.880E+002
 RTBSE|            1757           0.154                               0.880E+002
 RTBSE|            1758           0.152                               0.880E+002
 RTBSE|            1759           0.136                               0.880E+002
 RTBSE|            1760           0.141                               0.880E+002
 RTBSE|            1761           0.141                               0.880E+002
 RTBSE|            1762           0.146                               0.880E+002
 RTBSE|            1763           0.148                               0.880E+002
 RTBSE|            1764           0.138                               0.880E+002
 RTBSE|            1765           0.144                               0.880E+002
 RTBSE|            1766           0.143                               0.880E+002
 RTBSE|            1767           0.219                               0.880E+002
 RTBSE|            1768           0.144                               0.880E+002
 RTBSE|            1769           0.142                               0.880E+002
 RTBSE|            1770           0.137                               0.880E+002
 RTBSE|            1771           0.143                               0.880E+002
 RTBSE|            1772           0.142                               0.880E+002
 RTBSE|            1773           0.144                               0.880E+002
 RTBSE|            1774           0.137                               0.880E+002
 RTBSE|            1775           0.146                               0.880E+002
 RTBSE|            1776           0.144                               0.880E+002
 RTBSE|            1777           0.292                               0.880E+002
 RTBSE|            1778           0.147                               0.880E+002
 RTBSE|            1779           0.203                               0.880E+002
 RTBSE|            1780           0.204                               0.880E+002
 RTBSE|            1781           0.205                               0.880E+002
 RTBSE|            1782           0.197                               0.880E+002
 RTBSE|            1783           0.183                               0.880E+002
 RTBSE|            1784           0.138                               0.880E+002
 RTBSE|            1785           0.137                               0.880E+002
 RTBSE|            1786           0.136                               0.880E+002
 RTBSE|            1787           0.149                               0.880E+002
 RTBSE|            1788           0.140                               0.880E+002
 RTBSE|            1789           0.142                               0.880E+002
 RTBSE|            1790           0.143                               0.880E+002
 RTBSE|            1791           0.138                               0.880E+002
 RTBSE|            1792           0.146                               0.880E+002
 RTBSE|            1793           0.143                               0.880E+002
 RTBSE|            1794           0.146                               0.880E+002
 RTBSE|            1795           0.155                               0.880E+002
 RTBSE|            1796           0.139                               0.880E+002
 RTBSE|            1797           0.137                               0.880E+002
 RTBSE|            1798           0.143                               0.880E+002
 RTBSE|            1799           0.143                               0.880E+002
 RTBSE|            1800           0.142                               0.880E+002
 RTBSE|            1801           0.141                               0.880E+002
 RTBSE|            1802           0.184                               0.880E+002
 RTBSE|            1803           0.137                               0.880E+002
 RTBSE|            1804           0.145                               0.880E+002
 RTBSE|            1805           0.145                               0.880E+002
 RTBSE|            1806           0.140                               0.880E+002
 RTBSE|            1807           0.142                               0.880E+002
 RTBSE|            1808           0.147                               0.880E+002
 RTBSE|            1809           0.178                               0.880E+002
 RTBSE|            1810           0.149                               0.880E+002
 RTBSE|            1811           0.138                               0.880E+002
 RTBSE|            1812           0.138                               0.880E+002
 RTBSE|            1813           0.137                               0.880E+002
 RTBSE|            1814           0.140                               0.880E+002
 RTBSE|            1815           0.163                               0.880E+002
 RTBSE|            1816           0.164                               0.880E+002
 RTBSE|            1817           0.145                               0.880E+002
 RTBSE|            1818           0.144                               0.880E+002
 RTBSE|            1819           0.137                               0.880E+002
 RTBSE|            1820           0.147                               0.880E+002
 RTBSE|            1821           0.147                               0.880E+002
 RTBSE|            1822           0.140                               0.880E+002
 RTBSE|            1823           0.160                               0.880E+002
 RTBSE|            1824           0.142                               0.880E+002
 RTBSE|            1825           0.144                               0.880E+002
 RTBSE|            1826           0.145                               0.880E+002
 RTBSE|            1827           0.143                               0.880E+002
 RTBSE|            1828           0.139                               0.880E+002
 RTBSE|            1829           0.139                               0.880E+002
 RTBSE|            1830           0.143                               0.880E+002
 RTBSE|            1831           0.137                               0.880E+002
 RTBSE|            1832           0.143                               0.880E+002
 RTBSE|            1833           0.146                               0.880E+002
 RTBSE|            1834           0.145                               0.880E+002
 RTBSE|            1835           0.145                               0.880E+002
 RTBSE|            1836           0.156                               0.880E+002
 RTBSE|            1837           0.146                               0.880E+002
 RTBSE|            1838           0.137                               0.880E+002
 RTBSE|            1839           0.145                               0.880E+002
 RTBSE|            1840           0.136                               0.880E+002
 RTBSE|            1841           0.138                               0.880E+002
 RTBSE|            1842           0.145                               0.880E+002
 RTBSE|            1843           0.216                               0.880E+002
 RTBSE|            1844           0.139                               0.880E+002
 RTBSE|            1845           0.144                               0.880E+002
 RTBSE|            1846           0.144                               0.880E+002
 RTBSE|            1847           0.143                               0.880E+002
 RTBSE|            1848           0.142                               0.880E+002
 RTBSE|            1849           0.144                               0.880E+002
 RTBSE|            1850           0.143                               0.880E+002
 RTBSE|            1851           0.152                               0.880E+002
 RTBSE|            1852           0.143                               0.880E+002
 RTBSE|            1853           0.138                               0.880E+002
 RTBSE|            1854           0.142                               0.880E+002
 RTBSE|            1855           0.139                               0.880E+002
 RTBSE|            1856           0.146                               0.880E+002
 RTBSE|            1857           0.153                               0.880E+002
 RTBSE|            1858           0.145                               0.880E+002
 RTBSE|            1859           0.151                               0.880E+002
 RTBSE|            1860           0.140                               0.880E+002
 RTBSE|            1861           0.143                               0.880E+002
 RTBSE|            1862           0.137                               0.880E+002
 RTBSE|            1863           0.144                               0.880E+002
 RTBSE|            1864           0.140                               0.880E+002
 RTBSE|            1865           0.142                               0.880E+002
 RTBSE|            1866           0.142                               0.880E+002
 RTBSE|            1867           0.151                               0.880E+002
 RTBSE|            1868           0.137                               0.880E+002
 RTBSE|            1869           0.142                               0.880E+002
 RTBSE|            1870           0.144                               0.880E+002
 RTBSE|            1871           0.147                               0.880E+002
 RTBSE|            1872           0.142                               0.880E+002
 RTBSE|            1873           0.138                               0.880E+002
 RTBSE|            1874           0.139                               0.880E+002
 RTBSE|            1875           0.149                               0.880E+002
 RTBSE|            1876           0.140                               0.880E+002
 RTBSE|            1877           0.137                               0.880E+002
 RTBSE|            1878           0.139                               0.880E+002
 RTBSE|            1879           0.136                               0.880E+002
 RTBSE|            1880           0.137                               0.880E+002
 RTBSE|            1881           0.143                               0.880E+002
 RTBSE|            1882           0.137                               0.880E+002
 RTBSE|            1883           0.144                               0.880E+002
 RTBSE|            1884           0.137                               0.880E+002
 RTBSE|            1885           0.143                               0.880E+002
 RTBSE|            1886           0.139                               0.880E+002
 RTBSE|            1887           0.144                               0.880E+002
 RTBSE|            1888           0.143                               0.880E+002
 RTBSE|            1889           0.149                               0.880E+002
 RTBSE|            1890           0.140                               0.880E+002
 RTBSE|            1891           0.173                               0.880E+002
 RTBSE|            1892           0.145                               0.880E+002
 RTBSE|            1893           0.137                               0.880E+002
 RTBSE|            1894           0.137                               0.880E+002
 RTBSE|            1895           0.141                               0.880E+002
 RTBSE|            1896           0.138                               0.880E+002
 RTBSE|            1897           0.137                               0.880E+002
 RTBSE|            1898           0.139                               0.880E+002
 RTBSE|            1899           0.139                               0.880E+002
 RTBSE|            1900           0.142                               0.880E+002
 RTBSE|            1901           0.142                               0.880E+002
 RTBSE|            1902           0.140                               0.880E+002
 RTBSE|            1903           0.137                               0.880E+002
 RTBSE|            1904           0.138                               0.880E+002
 RTBSE|            1905           0.139                               0.880E+002
 RTBSE|            1906           0.141                               0.880E+002
 RTBSE|            1907           0.138                               0.880E+002
 RTBSE|            1908           0.151                               0.880E+002
 RTBSE|            1909           0.147                               0.880E+002
 RTBSE|            1910           0.140                               0.880E+002
 RTBSE|            1911           0.137                               0.880E+002
 RTBSE|            1912           0.139                               0.880E+002
 RTBSE|            1913           0.138                               0.880E+002
 RTBSE|            1914           0.141                               0.880E+002
 RTBSE|            1915           0.144                               0.880E+002
 RTBSE|            1916           0.144                               0.880E+002
 RTBSE|            1917           0.145                               0.880E+002
 RTBSE|            1918           0.138                               0.880E+002
 RTBSE|            1919           0.143                               0.880E+002
 RTBSE|            1920           0.144                               0.880E+002
 RTBSE|            1921           0.145                               0.880E+002
 RTBSE|            1922           0.138                               0.880E+002
 RTBSE|            1923           0.143                               0.880E+002
 RTBSE|            1924           0.145                               0.880E+002
 RTBSE|            1925           0.145                               0.880E+002
 RTBSE|            1926           0.141                               0.880E+002
 RTBSE|            1927           0.139                               0.880E+002
 RTBSE|            1928           0.139                               0.880E+002
 RTBSE|            1929           0.192                               0.880E+002
 RTBSE|            1930           0.140                               0.880E+002
 RTBSE|            1931           0.139                               0.880E+002
 RTBSE|            1932           0.143                               0.880E+002
 RTBSE|            1933           0.143                               0.880E+002
 RTBSE|            1934           0.145                               0.880E+002
 RTBSE|            1935           0.146                               0.880E+002
 RTBSE|            1936           0.147                               0.880E+002
 RTBSE|            1937           0.144                               0.880E+002
 RTBSE|            1938           0.144                               0.880E+002
 RTBSE|            1939           0.137                               0.880E+002
 RTBSE|            1940           0.146                               0.880E+002
 RTBSE|            1941           0.141                               0.880E+002
 RTBSE|            1942           0.137                               0.880E+002
 RTBSE|            1943           0.143                               0.880E+002
 RTBSE|            1944           0.139                               0.880E+002
 RTBSE|            1945           0.144                               0.880E+002
 RTBSE|            1946           0.144                               0.880E+002
 RTBSE|            1947           0.139                               0.880E+002
 RTBSE|            1948           0.144                               0.880E+002
 RTBSE|            1949           0.138                               0.880E+002
 RTBSE|            1950           0.139                               0.880E+002
 RTBSE|            1951           0.148                               0.880E+002
 RTBSE|            1952           0.150                               0.880E+002
 RTBSE|            1953           0.137                               0.880E+002
 RTBSE|            1954           0.143                               0.880E+002
 RTBSE|            1955           0.137                               0.880E+002
 RTBSE|            1956           0.142                               0.880E+002
 RTBSE|            1957           0.141                               0.880E+002
 RTBSE|            1958           0.140                               0.880E+002
 RTBSE|            1959           0.142                               0.880E+002
 RTBSE|            1960           0.145                               0.880E+002
 RTBSE|            1961           0.139                               0.880E+002
 RTBSE|            1962           0.142                               0.880E+002
 RTBSE|            1963           0.151                               0.880E+002
 RTBSE|            1964           0.137                               0.880E+002
 RTBSE|            1965           0.139                               0.880E+002
 RTBSE|            1966           0.146                               0.880E+002
 RTBSE|            1967           0.149                               0.880E+002
 RTBSE|            1968           0.144                               0.880E+002
 RTBSE|            1969           0.144                               0.880E+002
 RTBSE|            1970           0.153                               0.880E+002
 RTBSE|            1971           0.139                               0.880E+002
 RTBSE|            1972           0.141                               0.880E+002
 RTBSE|            1973           0.150                               0.880E+002
 RTBSE|            1974           0.138                               0.880E+002
 RTBSE|            1975           0.142                               0.880E+002
 RTBSE|            1976           0.144                               0.880E+002
 RTBSE|            1977           0.153                               0.880E+002
 RTBSE|            1978           0.139                               0.880E+002
 RTBSE|            1979           0.164                               0.880E+002
 RTBSE|            1980           0.153                               0.880E+002
 RTBSE|            1981           0.144                               0.880E+002
 RTBSE|            1982           0.145                               0.880E+002
 RTBSE|            1983           0.148                               0.880E+002
 RTBSE|            1984           0.137                               0.880E+002
 RTBSE|            1985           0.175                               0.880E+002
 RTBSE|            1986           0.296                               0.880E+002
 RTBSE|            1987           0.142                               0.880E+002
 RTBSE|            1988           0.148                               0.880E+002
 RTBSE|            1989           0.137                               0.880E+002
 RTBSE|            1990           0.144                               0.880E+002
 RTBSE|            1991           0.146                               0.880E+002
 RTBSE|            1992           0.148                               0.880E+002
 RTBSE|            1993           0.148                               0.880E+002
 RTBSE|            1994           0.149                               0.880E+002
 RTBSE|            1995           0.155                               0.880E+002
 RTBSE|            1996           0.137                               0.880E+002
 RTBSE|            1997           0.141                               0.880E+002
 RTBSE|            1998           0.143                               0.880E+002
 RTBSE|            1999           0.144                               0.880E+002
 RTBSE|            2000           0.144                               0.880E+002
 RTBSE|            2001           0.139                               0.880E+002
 RTBSE|            2002           0.145                               0.880E+002
 RTBSE|            2003           0.154                               0.880E+002
 RTBSE|            2004           0.151                               0.880E+002
 RTBSE|            2005           0.147                               0.880E+002
 RTBSE|            2006           0.145                               0.880E+002
 RTBSE|            2007           0.137                               0.880E+002
 RTBSE|            2008           0.142                               0.880E+002
 RTBSE|            2009           0.137                               0.880E+002
 RTBSE|            2010           0.147                               0.880E+002
 RTBSE|            2011           0.139                               0.880E+002
 RTBSE|            2012           0.139                               0.880E+002
 RTBSE|            2013           0.150                               0.880E+002
 RTBSE|            2014           0.137                               0.880E+002
 RTBSE|            2015           0.138                               0.880E+002
 RTBSE|            2016           0.137                               0.880E+002
 RTBSE|            2017           0.150                               0.880E+002
 RTBSE|            2018           0.146                               0.880E+002
 RTBSE|            2019           0.155                               0.880E+002
 RTBSE|            2020           0.138                               0.880E+002
 RTBSE|            2021           0.149                               0.880E+002
 RTBSE|            2022           0.147                               0.880E+002
 RTBSE|            2023           0.137                               0.880E+002
 RTBSE|            2024           0.143                               0.880E+002
 RTBSE|            2025           0.147                               0.880E+002
 RTBSE|            2026           0.147                               0.880E+002
 RTBSE|            2027           0.147                               0.880E+002
 RTBSE|            2028           0.145                               0.880E+002
 RTBSE|            2029           0.151                               0.880E+002
 RTBSE|            2030           0.144                               0.880E+002
 RTBSE|            2031           0.141                               0.880E+002
 RTBSE|            2032           0.138                               0.880E+002
 RTBSE|            2033           0.153                               0.880E+002
 RTBSE|            2034           0.146                               0.880E+002
 RTBSE|            2035           0.139                               0.880E+002
 RTBSE|            2036           0.143                               0.880E+002
 RTBSE|            2037           0.147                               0.880E+002
 RTBSE|            2038           0.147                               0.880E+002
 RTBSE|            2039           0.139                               0.880E+002
 RTBSE|            2040           0.144                               0.880E+002
 RTBSE|            2041           0.145                               0.880E+002
 RTBSE|            2042           0.139                               0.880E+002
 RTBSE|            2043           0.139                               0.880E+002
 RTBSE|            2044           0.146                               0.880E+002
 RTBSE|            2045           0.148                               0.880E+002
 RTBSE|            2046           0.145                               0.880E+002
 RTBSE|            2047           0.147                               0.880E+002
 RTBSE|            2048           0.145                               0.880E+002
 RTBSE|            2049           0.143                               0.880E+002
 RTBSE|            2050           0.137                               0.880E+002
 RTBSE|            2051           0.140                               0.880E+002
 RTBSE|            2052           0.136                               0.880E+002
 RTBSE|            2053           0.137                               0.880E+002
 RTBSE|            2054           0.148                               0.880E+002
 RTBSE|            2055           0.145                               0.880E+002
 RTBSE|            2056           0.137                               0.880E+002
 RTBSE|            2057           0.142                               0.880E+002
 RTBSE|            2058           0.143                               0.880E+002
 RTBSE|            2059           0.137                               0.880E+002
 RTBSE|            2060           0.136                               0.880E+002
 RTBSE|            2061           0.137                               0.880E+002
 RTBSE|            2062           0.142                               0.880E+002
 RTBSE|            2063           0.138                               0.880E+002
 RTBSE|            2064           0.155                               0.880E+002
 RTBSE|            2065           0.155                               0.880E+002
 RTBSE|            2066           0.139                               0.880E+002
 RTBSE|            2067           0.141                               0.880E+002
 RTBSE|            2068           0.142                               0.880E+002
 RTBSE|            2069           0.147                               0.880E+002
 RTBSE|            2070           0.139                               0.880E+002
 RTBSE|            2071           0.137                               0.880E+002
 RTBSE|            2072           0.141                               0.880E+002
 RTBSE|            2073           0.149                               0.880E+002
 RTBSE|            2074           0.153                               0.880E+002
 RTBSE|            2075           0.139                               0.880E+002
 RTBSE|            2076           0.147                               0.880E+002
 RTBSE|            2077           0.140                               0.880E+002
 RTBSE|            2078           0.136                               0.880E+002
 RTBSE|            2079           0.140                               0.880E+002
 RTBSE|            2080           0.144                               0.880E+002
 RTBSE|            2081           0.144                               0.880E+002
 RTBSE|            2082           0.136                               0.880E+002
 RTBSE|            2083           0.150                               0.880E+002
 RTBSE|            2084           0.137                               0.880E+002
 RTBSE|            2085           0.144                               0.880E+002
 RTBSE|            2086           0.137                               0.880E+002
 RTBSE|            2087           0.150                               0.880E+002
 RTBSE|            2088           0.137                               0.880E+002
 RTBSE|            2089           0.144                               0.880E+002
 RTBSE|            2090           0.143                               0.880E+002
 RTBSE|            2091           0.149                               0.880E+002
 RTBSE|            2092           0.139                               0.880E+002
 RTBSE|            2093           0.139                               0.880E+002
 RTBSE|            2094           0.155                               0.880E+002
 RTBSE|            2095           0.146                               0.880E+002
 RTBSE|            2096           0.146                               0.880E+002
 RTBSE|            2097           0.137                               0.880E+002
 RTBSE|            2098           0.145                               0.880E+002
 RTBSE|            2099           0.138                               0.880E+002
 RTBSE|            2100           0.141                               0.880E+002
 RTBSE|            2101           0.184                               0.880E+002
 RTBSE|            2102           0.142                               0.880E+002
 RTBSE|            2103           0.140                               0.880E+002
 RTBSE|            2104           0.136                               0.880E+002
 RTBSE|            2105           0.143                               0.880E+002
 RTBSE|            2106           0.145                               0.880E+002
 RTBSE|            2107           0.139                               0.880E+002
 RTBSE|            2108           0.179                               0.880E+002
 RTBSE|            2109           0.143                               0.880E+002
 RTBSE|            2110           0.139                               0.880E+002
 RTBSE|            2111           0.146                               0.880E+002
 RTBSE|            2112           0.140                               0.880E+002
 RTBSE|            2113           0.144                               0.880E+002
 RTBSE|            2114           0.148                               0.880E+002
 RTBSE|            2115           0.185                               0.880E+002
 RTBSE|            2116           0.137                               0.880E+002
 RTBSE|            2117           0.138                               0.880E+002
 RTBSE|            2118           0.141                               0.880E+002
 RTBSE|            2119           0.146                               0.880E+002
 RTBSE|            2120           0.144                               0.880E+002
 RTBSE|            2121           0.141                               0.880E+002
 RTBSE|            2122           0.137                               0.880E+002
 RTBSE|            2123           0.139                               0.880E+002
 RTBSE|            2124           0.138                               0.880E+002
 RTBSE|            2125           0.144                               0.880E+002
 RTBSE|            2126           0.140                               0.880E+002
 RTBSE|            2127           0.137                               0.880E+002
 RTBSE|            2128           0.145                               0.880E+002
 RTBSE|            2129           0.153                               0.880E+002
 RTBSE|            2130           0.147                               0.880E+002
 RTBSE|            2131           0.143                               0.880E+002
 RTBSE|            2132           0.156                               0.880E+002
 RTBSE|            2133           0.148                               0.880E+002
 RTBSE|            2134           0.150                               0.880E+002
 RTBSE|            2135           0.147                               0.880E+002
 RTBSE|            2136           0.145                               0.880E+002
 RTBSE|            2137           0.143                               0.880E+002
 RTBSE|            2138           0.140                               0.880E+002
 RTBSE|            2139           0.146                               0.880E+002
 RTBSE|            2140           0.140                               0.880E+002
 RTBSE|            2141           0.150                               0.880E+002
 RTBSE|            2142           0.214                               0.880E+002
 RTBSE|            2143           0.145                               0.880E+002
 RTBSE|            2144           0.140                               0.880E+002
 RTBSE|            2145           0.140                               0.880E+002
 RTBSE|            2146           0.143                               0.880E+002
 RTBSE|            2147           0.145                               0.880E+002
 RTBSE|            2148           0.141                               0.880E+002
 RTBSE|            2149           0.137                               0.880E+002
 RTBSE|            2150           0.146                               0.880E+002
 RTBSE|            2151           0.155                               0.880E+002
 RTBSE|            2152           0.142                               0.880E+002
 RTBSE|            2153           0.145                               0.880E+002
 RTBSE|            2154           0.148                               0.880E+002
 RTBSE|            2155           0.146                               0.880E+002
 RTBSE|            2156           0.137                               0.880E+002
 RTBSE|            2157           0.157                               0.880E+002
 RTBSE|            2158           0.148                               0.880E+002
 RTBSE|            2159           0.137                               0.880E+002
 RTBSE|            2160           0.143                               0.880E+002
 RTBSE|            2161           0.139                               0.880E+002
 RTBSE|            2162           0.140                               0.880E+002
 RTBSE|            2163           0.160                               0.880E+002
 RTBSE|            2164           0.150                               0.880E+002
 RTBSE|            2165           0.137                               0.880E+002
 RTBSE|            2166           0.155                               0.880E+002
 RTBSE|            2167           0.144                               0.880E+002
 RTBSE|            2168           0.139                               0.880E+002
 RTBSE|            2169           0.142                               0.880E+002
 RTBSE|            2170           0.142                               0.880E+002
 RTBSE|            2171           0.143                               0.880E+002
 RTBSE|            2172           0.137                               0.880E+002
 RTBSE|            2173           0.143                               0.880E+002
 RTBSE|            2174           0.136                               0.880E+002
 RTBSE|            2175           0.144                               0.880E+002
 RTBSE|            2176           0.137                               0.880E+002
 RTBSE|            2177           0.139                               0.880E+002
 RTBSE|            2178           0.138                               0.880E+002
 RTBSE|            2179           0.154                               0.880E+002
 RTBSE|            2180           0.143                               0.880E+002
 RTBSE|            2181           0.141                               0.880E+002
 RTBSE|            2182           0.152                               0.880E+002
 RTBSE|            2183           0.329                               0.880E+002
 RTBSE|            2184           0.168                               0.880E+002
 RTBSE|            2185           0.144                               0.880E+002
 RTBSE|            2186           0.147                               0.880E+002
 RTBSE|            2187           0.181                               0.880E+002
 RTBSE|            2188           0.141                               0.880E+002
 RTBSE|            2189           0.148                               0.880E+002
 RTBSE|            2190           0.176                               0.880E+002
 RTBSE|            2191           0.156                               0.880E+002
 RTBSE|            2192           0.141                               0.880E+002
 RTBSE|            2193           0.138                               0.880E+002
 RTBSE|            2194           0.147                               0.880E+002
 RTBSE|            2195           0.137                               0.880E+002
 RTBSE|            2196           0.152                               0.880E+002
 RTBSE|            2197           0.156                               0.880E+002
 RTBSE|            2198           0.175                               0.880E+002
 RTBSE|            2199           0.146                               0.880E+002
 RTBSE|            2200           0.146                               0.880E+002
 RTBSE|            2201           0.153                               0.880E+002
 RTBSE|            2202           0.152                               0.880E+002
 RTBSE|            2203           0.137                               0.880E+002
 RTBSE|            2204           0.179                               0.880E+002
 RTBSE|            2205           0.157                               0.880E+002
 RTBSE|            2206           0.145                               0.880E+002
 RTBSE|            2207           0.141                               0.880E+002
 RTBSE|            2208           0.137                               0.880E+002
 RTBSE|            2209           0.152                               0.880E+002
 RTBSE|            2210           0.138                               0.880E+002
 RTBSE|            2211           0.140                               0.880E+002
 RTBSE|            2212           0.137                               0.880E+002
 RTBSE|            2213           0.143                               0.880E+002
 RTBSE|            2214           0.137                               0.880E+002
 RTBSE|            2215           0.148                               0.880E+002
 RTBSE|            2216           0.145                               0.880E+002
 RTBSE|            2217           0.137                               0.880E+002
 RTBSE|            2218           0.153                               0.880E+002
 RTBSE|            2219           0.138                               0.880E+002
 RTBSE|            2220           0.149                               0.880E+002
 RTBSE|            2221           0.148                               0.880E+002
 RTBSE|            2222           0.137                               0.880E+002
 RTBSE|            2223           0.144                               0.880E+002
 RTBSE|            2224           0.143                               0.880E+002
 RTBSE|            2225           0.149                               0.880E+002
 RTBSE|            2226           0.136                               0.880E+002
 RTBSE|            2227           0.144                               0.880E+002
 RTBSE|            2228           0.137                               0.880E+002
 RTBSE|            2229           0.149                               0.880E+002
 RTBSE|            2230           0.137                               0.880E+002
 RTBSE|            2231           0.136                               0.880E+002
 RTBSE|            2232           0.214                               0.880E+002
 RTBSE|            2233           0.138                               0.880E+002
 RTBSE|            2234           0.146                               0.880E+002
 RTBSE|            2235           0.142                               0.880E+002
 RTBSE|            2236           0.142                               0.880E+002
 RTBSE|            2237           0.137                               0.880E+002
 RTBSE|            2238           0.136                               0.880E+002
 RTBSE|            2239           0.144                               0.880E+002
 RTBSE|            2240           0.137                               0.880E+002
 RTBSE|            2241           0.137                               0.880E+002
 RTBSE|            2242           0.143                               0.880E+002
 RTBSE|            2243           0.136                               0.880E+002
 RTBSE|            2244           0.137                               0.880E+002
 RTBSE|            2245           0.145                               0.880E+002
 RTBSE|            2246           0.137                               0.880E+002
 RTBSE|            2247           0.137                               0.880E+002
 RTBSE|            2248           0.147                               0.880E+002
 RTBSE|            2249           0.137                               0.880E+002
 RTBSE|            2250           0.153                               0.880E+002
 RTBSE|            2251           0.141                               0.880E+002
 RTBSE|            2252           0.145                               0.880E+002
 RTBSE|            2253           0.137                               0.880E+002
 RTBSE|            2254           0.147                               0.880E+002
 RTBSE|            2255           0.150                               0.880E+002
 RTBSE|            2256           0.138                               0.880E+002
 RTBSE|            2257           0.138                               0.880E+002
 RTBSE|            2258           0.139                               0.880E+002
 RTBSE|            2259           0.152                               0.880E+002
 RTBSE|            2260           0.145                               0.880E+002
 RTBSE|            2261           0.151                               0.880E+002
 RTBSE|            2262           0.140                               0.880E+002
 RTBSE|            2263           0.137                               0.880E+002
 RTBSE|            2264           0.146                               0.880E+002
 RTBSE|            2265           0.143                               0.880E+002
 RTBSE|            2266           0.144                               0.880E+002
 RTBSE|            2267           0.153                               0.880E+002
 RTBSE|            2268           0.139                               0.880E+002
 RTBSE|            2269           0.155                               0.880E+002
 RTBSE|            2270           0.138                               0.880E+002
 RTBSE|            2271           0.147                               0.880E+002
 RTBSE|            2272           0.139                               0.880E+002
 RTBSE|            2273           0.139                               0.880E+002
 RTBSE|            2274           0.142                               0.880E+002
 RTBSE|            2275           0.145                               0.880E+002
 RTBSE|            2276           0.144                               0.880E+002
 RTBSE|            2277           0.139                               0.880E+002
 RTBSE|            2278           0.165                               0.880E+002
 RTBSE|            2279           0.147                               0.880E+002
 RTBSE|            2280           0.142                               0.880E+002
 RTBSE|            2281           0.147                               0.880E+002
 RTBSE|            2282           0.139                               0.880E+002
 RTBSE|            2283           0.146                               0.880E+002
 RTBSE|            2284           0.138                               0.880E+002
 RTBSE|            2285           0.153                               0.880E+002
 RTBSE|            2286           0.149                               0.880E+002
 RTBSE|            2287           0.147                               0.880E+002
 RTBSE|            2288           0.149                               0.880E+002
 RTBSE|            2289           0.146                               0.880E+002
 RTBSE|            2290           0.153                               0.880E+002
 RTBSE|            2291           0.140                               0.880E+002
 RTBSE|            2292           0.143                               0.880E+002
 RTBSE|            2293           0.146                               0.880E+002
 RTBSE|            2294           0.140                               0.880E+002
 RTBSE|            2295           0.141                               0.880E+002
 RTBSE|            2296           0.137                               0.880E+002
 RTBSE|            2297           0.180                               0.880E+002
 RTBSE|            2298           0.144                               0.880E+002
 RTBSE|            2299           0.139                               0.880E+002
 RTBSE|            2300           0.139                               0.880E+002
 RTBSE|            2301           0.153                               0.880E+002
 RTBSE|            2302           0.137                               0.880E+002
 RTBSE|            2303           0.141                               0.880E+002
 RTBSE|            2304           0.156                               0.880E+002
 RTBSE|            2305           0.140                               0.880E+002
 RTBSE|            2306           0.136                               0.880E+002
 RTBSE|            2307           0.153                               0.880E+002
 RTBSE|            2308           0.142                               0.880E+002
 RTBSE|            2309           0.152                               0.880E+002
 RTBSE|            2310           0.144                               0.880E+002
 RTBSE|            2311           0.139                               0.880E+002
 RTBSE|            2312           0.150                               0.880E+002
 RTBSE|            2313           0.145                               0.880E+002
 RTBSE|            2314           0.144                               0.880E+002
 RTBSE|            2315           0.150                               0.880E+002
 RTBSE|            2316           0.142                               0.880E+002
 RTBSE|            2317           0.139                               0.880E+002
 RTBSE|            2318           0.139                               0.880E+002
 RTBSE|            2319           0.149                               0.880E+002
 RTBSE|            2320           0.160                               0.880E+002
 RTBSE|            2321           0.145                               0.880E+002
 RTBSE|            2322           0.144                               0.880E+002
 RTBSE|            2323           0.151                               0.880E+002
 RTBSE|            2324           0.139                               0.880E+002
 RTBSE|            2325           0.150                               0.880E+002
 RTBSE|            2326           0.137                               0.880E+002
 RTBSE|            2327           0.156                               0.880E+002
 RTBSE|            2328           0.143                               0.880E+002
 RTBSE|            2329           0.145                               0.880E+002
 RTBSE|            2330           0.143                               0.880E+002
 RTBSE|            2331           0.155                               0.880E+002
 RTBSE|            2332           0.146                               0.880E+002
 RTBSE|            2333           0.169                               0.880E+002
 RTBSE|            2334           0.145                               0.880E+002
 RTBSE|            2335           0.142                               0.880E+002
 RTBSE|            2336           0.150                               0.880E+002
 RTBSE|            2337           0.144                               0.880E+002
 RTBSE|            2338           0.138                               0.880E+002
 RTBSE|            2339           0.146                               0.880E+002
 RTBSE|            2340           0.151                               0.880E+002
 RTBSE|            2341           0.147                               0.880E+002
 RTBSE|            2342           0.143                               0.880E+002
 RTBSE|            2343           0.145                               0.880E+002
 RTBSE|            2344           0.148                               0.880E+002
 RTBSE|            2345           0.139                               0.880E+002
 RTBSE|            2346           0.141                               0.880E+002
 RTBSE|            2347           0.150                               0.880E+002
 RTBSE|            2348           0.155                               0.880E+002
 RTBSE|            2349           0.149                               0.880E+002
 RTBSE|            2350           0.137                               0.880E+002
 RTBSE|            2351           0.144                               0.880E+002
 RTBSE|            2352           0.145                               0.880E+002
 RTBSE|            2353           0.147                               0.880E+002
 RTBSE|            2354           0.138                               0.880E+002
 RTBSE|            2355           0.139                               0.880E+002
 RTBSE|            2356           0.144                               0.880E+002
 RTBSE|            2357           0.152                               0.880E+002
 RTBSE|            2358           0.139                               0.880E+002
 RTBSE|            2359           0.145                               0.880E+002
 RTBSE|            2360           0.156                               0.880E+002
 RTBSE|            2361           0.146                               0.880E+002
 RTBSE|            2362           0.136                               0.880E+002
 RTBSE|            2363           0.150                               0.880E+002
 RTBSE|            2364           0.136                               0.880E+002
 RTBSE|            2365           0.154                               0.880E+002
 RTBSE|            2366           0.137                               0.880E+002
 RTBSE|            2367           0.139                               0.880E+002
 RTBSE|            2368           0.139                               0.880E+002
 RTBSE|            2369           0.146                               0.880E+002
 RTBSE|            2370           0.139                               0.880E+002
 RTBSE|            2371           0.137                               0.880E+002
 RTBSE|            2372           0.136                               0.880E+002
 RTBSE|            2373           0.142                               0.880E+002
 RTBSE|            2374           0.144                               0.880E+002
 RTBSE|            2375           0.141                               0.880E+002
 RTBSE|            2376           0.141                               0.880E+002
 RTBSE|            2377           0.139                               0.880E+002
 RTBSE|            2378           0.154                               0.880E+002
 RTBSE|            2379           0.144                               0.880E+002
 RTBSE|            2380           0.144                               0.880E+002
 RTBSE|            2381           0.139                               0.880E+002
 RTBSE|            2382           0.148                               0.880E+002
 RTBSE|            2383           0.140                               0.880E+002
 RTBSE|            2384           0.147                               0.880E+002
 RTBSE|            2385           0.203                               0.880E+002
 RTBSE|            2386           0.205                               0.880E+002
 RTBSE|            2387           0.170                               0.880E+002
 RTBSE|            2388           0.145                               0.880E+002
 RTBSE|            2389           0.143                               0.880E+002
 RTBSE|            2390           0.332                               0.880E+002
 RTBSE|            2391           0.195                               0.880E+002
 RTBSE|            2392           0.175                               0.880E+002
 RTBSE|            2393           0.144                               0.880E+002
 RTBSE|            2394           0.137                               0.880E+002
 RTBSE|            2395           0.144                               0.880E+002
 RTBSE|            2396           0.143                               0.880E+002
 RTBSE|            2397           0.151                               0.880E+002
 RTBSE|            2398           0.161                               0.880E+002
 RTBSE|            2399           0.151                               0.880E+002
 RTBSE|            2400           0.140                               0.880E+002
 RTBSE|            2401           0.153                               0.880E+002
 RTBSE|            2402           0.145                               0.880E+002
 RTBSE|            2403           0.139                               0.880E+002
 RTBSE|            2404           0.148                               0.880E+002
 RTBSE|            2405           0.148                               0.880E+002
 RTBSE|            2406           0.150                               0.880E+002
 RTBSE|            2407           0.150                               0.880E+002
 RTBSE|            2408           0.139                               0.880E+002
 RTBSE|            2409           0.145                               0.880E+002
 RTBSE|            2410           0.150                               0.880E+002
 RTBSE|            2411           0.140                               0.880E+002
 RTBSE|            2412           0.140                               0.880E+002
 RTBSE|            2413           0.151                               0.880E+002
 RTBSE|            2414           0.142                               0.880E+002
 RTBSE|            2415           0.139                               0.880E+002
 RTBSE|            2416           0.146                               0.880E+002
 RTBSE|            2417           0.142                               0.880E+002
 RTBSE|            2418           0.142                               0.880E+002
 RTBSE|            2419           0.141                               0.880E+002
 RTBSE|            2420           0.142                               0.880E+002
 RTBSE|            2421           0.147                               0.880E+002
 RTBSE|            2422           0.144                               0.880E+002
 RTBSE|            2423           0.145                               0.880E+002
 RTBSE|            2424           0.144                               0.880E+002
 RTBSE|            2425           0.143                               0.880E+002
 RTBSE|            2426           0.153                               0.880E+002
 RTBSE|            2427           0.139                               0.880E+002
 RTBSE|            2428           0.138                               0.880E+002
 RTBSE|            2429           0.143                               0.880E+002
 RTBSE|            2430           0.152                               0.880E+002
 RTBSE|            2431           0.146                               0.880E+002
 RTBSE|            2432           0.137                               0.880E+002
 RTBSE|            2433           0.138                               0.880E+002
 RTBSE|            2434           0.156                               0.880E+002
 RTBSE|            2435           0.139                               0.880E+002
 RTBSE|            2436           0.139                               0.880E+002
 RTBSE|            2437           0.144                               0.880E+002
 RTBSE|            2438           0.137                               0.880E+002
 RTBSE|            2439           0.148                               0.880E+002
 RTBSE|            2440           0.149                               0.880E+002
 RTBSE|            2441           0.137                               0.880E+002
 RTBSE|            2442           0.138                               0.880E+002
 RTBSE|            2443           0.139                               0.880E+002
 RTBSE|            2444           0.147                               0.880E+002
 RTBSE|            2445           0.142                               0.880E+002
 RTBSE|            2446           0.137                               0.880E+002
 RTBSE|            2447           0.140                               0.880E+002
 RTBSE|            2448           0.146                               0.880E+002
 RTBSE|            2449           0.136                               0.880E+002
 RTBSE|            2450           0.136                               0.880E+002
 RTBSE|            2451           0.144                               0.880E+002
 RTBSE|            2452           0.137                               0.880E+002
 RTBSE|            2453           0.144                               0.880E+002
 RTBSE|            2454           0.160                               0.880E+002
 RTBSE|            2455           0.137                               0.880E+002
 RTBSE|            2456           0.140                               0.880E+002
 RTBSE|            2457           0.137                               0.880E+002
 RTBSE|            2458           0.139                               0.880E+002
 RTBSE|            2459           0.144                               0.880E+002
 RTBSE|            2460           0.151                               0.880E+002
 RTBSE|            2461           0.199                               0.880E+002
 RTBSE|            2462           0.141                               0.880E+002
 RTBSE|            2463           0.145                               0.880E+002
 RTBSE|            2464           0.137                               0.880E+002
 RTBSE|            2465           0.147                               0.880E+002
 RTBSE|            2466           0.140                               0.880E+002
 RTBSE|            2467           0.148                               0.880E+002
 RTBSE|            2468           0.194                               0.880E+002
 RTBSE|            2469           0.145                               0.880E+002
 RTBSE|            2470           0.149                               0.880E+002
 RTBSE|            2471           0.144                               0.880E+002
 RTBSE|            2472           0.137                               0.880E+002
 RTBSE|            2473           0.141                               0.880E+002
 RTBSE|            2474           0.144                               0.880E+002
 RTBSE|            2475           0.188                               0.880E+002
 RTBSE|            2476           0.145                               0.880E+002
 RTBSE|            2477           0.139                               0.880E+002
 RTBSE|            2478           0.139                               0.880E+002
 RTBSE|            2479           0.137                               0.880E+002
 RTBSE|            2480           0.137                               0.880E+002
 RTBSE|            2481           0.142                               0.880E+002
 RTBSE|            2482           0.143                               0.880E+002
 RTBSE|            2483           0.152                               0.880E+002
 RTBSE|            2484           0.144                               0.880E+002
 RTBSE|            2485           0.142                               0.880E+002
 RTBSE|            2486           0.151                               0.880E+002
 RTBSE|            2487           0.152                               0.880E+002
 RTBSE|            2488           0.154                               0.880E+002
 RTBSE|            2489           0.137                               0.880E+002
 RTBSE|            2490           0.142                               0.880E+002
 RTBSE|            2491           0.144                               0.880E+002
 RTBSE|            2492           0.144                               0.880E+002
 RTBSE|            2493           0.148                               0.880E+002
 RTBSE|            2494           0.146                               0.880E+002
 RTBSE|            2495           0.142                               0.880E+002
 RTBSE|            2496           0.140                               0.880E+002
 RTBSE|            2497           0.138                               0.880E+002
 RTBSE|            2498           0.152                               0.880E+002
 RTBSE|            2499           0.142                               0.880E+002
 RTBSE|            2500           0.146                               0.880E+002
 RTBSE|            2501           0.144                               0.880E+002
 RTBSE|            2502           0.216                               0.880E+002
 RTBSE|            2503           0.140                               0.880E+002
 RTBSE|            2504           0.141                               0.880E+002
 RTBSE|            2505           0.140                               0.880E+002
 RTBSE|            2506           0.138                               0.880E+002
 RTBSE|            2507           0.155                               0.880E+002
 RTBSE|            2508           0.146                               0.880E+002
 RTBSE|            2509           0.146                               0.880E+002
 RTBSE|            2510           0.141                               0.880E+002
 RTBSE|            2511           0.148                               0.880E+002
 RTBSE|            2512           0.142                               0.880E+002
 RTBSE|            2513           0.147                               0.880E+002
 RTBSE|            2514           0.147                               0.880E+002
 RTBSE|            2515           0.138                               0.880E+002
 RTBSE|            2516           0.136                               0.880E+002
 RTBSE|            2517           0.154                               0.880E+002
 RTBSE|            2518           0.143                               0.880E+002
 RTBSE|            2519           0.147                               0.880E+002
 RTBSE|            2520           0.139                               0.880E+002
 RTBSE|            2521           0.143                               0.880E+002
 RTBSE|            2522           0.136                               0.880E+002
 RTBSE|            2523           0.146                               0.880E+002
 RTBSE|            2524           0.139                               0.880E+002
 RTBSE|            2525           0.146                               0.880E+002
 RTBSE|            2526           0.144                               0.880E+002
 RTBSE|            2527           0.144                               0.880E+002
 RTBSE|            2528           0.136                               0.880E+002
 RTBSE|            2529           0.136                               0.880E+002
 RTBSE|            2530           0.145                               0.880E+002
 RTBSE|            2531           0.149                               0.880E+002
 RTBSE|            2532           0.144                               0.880E+002
 RTBSE|            2533           0.140                               0.880E+002
 RTBSE|            2534           0.157                               0.880E+002
 RTBSE|            2535           0.145                               0.880E+002
 RTBSE|            2536           0.142                               0.880E+002
 RTBSE|            2537           0.141                               0.880E+002
 RTBSE|            2538           0.144                               0.880E+002
 RTBSE|            2539           0.138                               0.880E+002
 RTBSE|            2540           0.136                               0.880E+002
 RTBSE|            2541           0.136                               0.880E+002
 RTBSE|            2542           0.141                               0.880E+002
 RTBSE|            2543           0.148                               0.880E+002
 RTBSE|            2544           0.139                               0.880E+002
 RTBSE|            2545           0.136                               0.880E+002
 RTBSE|            2546           0.141                               0.880E+002
 RTBSE|            2547           0.137                               0.880E+002
 RTBSE|            2548           0.144                               0.880E+002
 RTBSE|            2549           0.146                               0.880E+002
 RTBSE|            2550           0.144                               0.880E+002
 RTBSE|            2551           0.139                               0.880E+002
 RTBSE|            2552           0.149                               0.880E+002
 RTBSE|            2553           0.138                               0.880E+002
 RTBSE|            2554           0.136                               0.880E+002
 RTBSE|            2555           0.149                               0.880E+002
 RTBSE|            2556           0.148                               0.880E+002
 RTBSE|            2557           0.140                               0.880E+002
 RTBSE|            2558           0.146                               0.880E+002
 RTBSE|            2559           0.137                               0.880E+002
 RTBSE|            2560           0.145                               0.880E+002
 RTBSE|            2561           0.137                               0.880E+002
 RTBSE|            2562           0.166                               0.880E+002
 RTBSE|            2563           0.137                               0.880E+002
 RTBSE|            2564           0.137                               0.880E+002
 RTBSE|            2565           0.145                               0.880E+002
 RTBSE|            2566           0.145                               0.880E+002
 RTBSE|            2567           0.150                               0.880E+002
 RTBSE|            2568           0.137                               0.880E+002
 RTBSE|            2569           0.199                               0.880E+002
 RTBSE|            2570           0.150                               0.880E+002
 RTBSE|            2571           0.141                               0.880E+002
 RTBSE|            2572           0.138                               0.880E+002
 RTBSE|            2573           0.144                               0.880E+002
 RTBSE|            2574           0.147                               0.880E+002
 RTBSE|            2575           0.137                               0.880E+002
 RTBSE|            2576           0.189                               0.880E+002
 RTBSE|            2577           0.147                               0.880E+002
 RTBSE|            2578           0.155                               0.880E+002
 RTBSE|            2579           0.141                               0.880E+002
 RTBSE|            2580           0.138                               0.880E+002
 RTBSE|            2581           0.138                               0.880E+002
 RTBSE|            2582           0.136                               0.880E+002
 RTBSE|            2583           0.196                               0.880E+002
 RTBSE|            2584           0.143                               0.880E+002
 RTBSE|            2585           0.287                               0.880E+002
 RTBSE|            2586           0.172                               0.880E+002
 RTBSE|            2587           0.145                               0.880E+002
 RTBSE|            2588           0.147                               0.880E+002
 RTBSE|            2589           0.147                               0.880E+002
 RTBSE|            2590           0.184                               0.880E+002
 RTBSE|            2591           0.147                               0.880E+002
 RTBSE|            2592           0.148                               0.880E+002
 RTBSE|            2593           0.148                               0.880E+002
 RTBSE|            2594           0.145                               0.880E+002
 RTBSE|            2595           0.153                               0.880E+002
 RTBSE|            2596           0.149                               0.880E+002
 RTBSE|            2597           0.155                               0.880E+002
 RTBSE|            2598           0.144                               0.880E+002
 RTBSE|            2599           0.137                               0.880E+002
 RTBSE|            2600           0.162                               0.880E+002
 RTBSE|            2601           0.148                               0.880E+002
 RTBSE|            2602           0.145                               0.880E+002
 RTBSE|            2603           0.137                               0.880E+002
 RTBSE|            2604           0.144                               0.880E+002
 RTBSE|            2605           0.146                               0.880E+002
 RTBSE|            2606           0.146                               0.880E+002
 RTBSE|            2607           0.136                               0.880E+002
 RTBSE|            2608           0.195                               0.880E+002
 RTBSE|            2609           0.172                               0.880E+002
 RTBSE|            2610           0.151                               0.880E+002
 RTBSE|            2611           0.137                               0.880E+002
 RTBSE|            2612           0.155                               0.880E+002
 RTBSE|            2613           0.154                               0.880E+002
 RTBSE|            2614           0.146                               0.880E+002
 RTBSE|            2615           0.139                               0.880E+002
 RTBSE|            2616           0.144                               0.880E+002
 RTBSE|            2617           0.143                               0.880E+002
 RTBSE|            2618           0.143                               0.880E+002
 RTBSE|            2619           0.136                               0.880E+002
 RTBSE|            2620           0.164                               0.880E+002
 RTBSE|            2621           0.149                               0.880E+002
 RTBSE|            2622           0.157                               0.880E+002
 RTBSE|            2623           0.142                               0.880E+002
 RTBSE|            2624           0.145                               0.880E+002
 RTBSE|            2625           0.137                               0.880E+002
 RTBSE|            2626           0.137                               0.880E+002
 RTBSE|            2627           0.149                               0.880E+002
 RTBSE|            2628           0.137                               0.880E+002
 RTBSE|            2629           0.137                               0.880E+002
 RTBSE|            2630           0.147                               0.880E+002
 RTBSE|            2631           0.146                               0.880E+002
 RTBSE|            2632           0.146                               0.880E+002
 RTBSE|            2633           0.138                               0.880E+002
 RTBSE|            2634           0.144                               0.880E+002
 RTBSE|            2635           0.138                               0.880E+002
 RTBSE|            2636           0.138                               0.880E+002
 RTBSE|            2637           0.152                               0.880E+002
 RTBSE|            2638           0.139                               0.880E+002
 RTBSE|            2639           0.140                               0.880E+002
 RTBSE|            2640           0.142                               0.880E+002
 RTBSE|            2641           0.136                               0.880E+002
 RTBSE|            2642           0.146                               0.880E+002
 RTBSE|            2643           0.136                               0.880E+002
 RTBSE|            2644           0.149                               0.880E+002
 RTBSE|            2645           0.148                               0.880E+002
 RTBSE|            2646           0.145                               0.880E+002
 RTBSE|            2647           0.154                               0.880E+002
 RTBSE|            2648           0.143                               0.880E+002
 RTBSE|            2649           0.152                               0.880E+002
 RTBSE|            2650           0.137                               0.880E+002
 RTBSE|            2651           0.144                               0.880E+002
 RTBSE|            2652           0.139                               0.880E+002
 RTBSE|            2653           0.146                               0.880E+002
 RTBSE|            2654           0.144                               0.880E+002
 RTBSE|            2655           0.136                               0.880E+002
 RTBSE|            2656           0.146                               0.880E+002
 RTBSE|            2657           0.143                               0.880E+002
 RTBSE|            2658           0.155                               0.880E+002
 RTBSE|            2659           0.138                               0.880E+002
 RTBSE|            2660           0.150                               0.880E+002
 RTBSE|            2661           0.149                               0.880E+002
 RTBSE|            2662           0.137                               0.880E+002
 RTBSE|            2663           0.136                               0.880E+002
 RTBSE|            2664           0.141                               0.880E+002
 RTBSE|            2665           0.137                               0.880E+002
 RTBSE|            2666           0.158                               0.880E+002
 RTBSE|            2667           0.151                               0.880E+002
 RTBSE|            2668           0.154                               0.880E+002
 RTBSE|            2669           0.148                               0.880E+002
 RTBSE|            2670           0.145                               0.880E+002
 RTBSE|            2671           0.150                               0.880E+002
 RTBSE|            2672           0.141                               0.880E+002
 RTBSE|            2673           0.144                               0.880E+002
 RTBSE|            2674           0.143                               0.880E+002
 RTBSE|            2675           0.151                               0.880E+002
 RTBSE|            2676           0.154                               0.880E+002
 RTBSE|            2677           0.139                               0.880E+002
 RTBSE|            2678           0.152                               0.880E+002
 RTBSE|            2679           0.137                               0.880E+002
 RTBSE|            2680           0.153                               0.880E+002
 RTBSE|            2681           0.149                               0.880E+002
 RTBSE|            2682           0.140                               0.880E+002
 RTBSE|            2683           0.140                               0.880E+002
 RTBSE|            2684           0.150                               0.880E+002
 RTBSE|            2685           0.155                               0.880E+002
 RTBSE|            2686           0.144                               0.880E+002
 RTBSE|            2687           0.137                               0.880E+002
 RTBSE|            2688           0.139                               0.880E+002
 RTBSE|            2689           0.153                               0.880E+002
 RTBSE|            2690           0.157                               0.880E+002
 RTBSE|            2691           0.156                               0.880E+002
 RTBSE|            2692           0.144                               0.880E+002
 RTBSE|            2693           0.136                               0.880E+002
 RTBSE|            2694           0.137                               0.880E+002
 RTBSE|            2695           0.164                               0.880E+002
 RTBSE|            2696           0.144                               0.880E+002
 RTBSE|            2697           0.137                               0.880E+002
 RTBSE|            2698           0.155                               0.880E+002
 RTBSE|            2699           0.182                               0.880E+002
 RTBSE|            2700           0.150                               0.880E+002
 RTBSE|            2701           0.150                               0.880E+002
 RTBSE|            2702           0.143                               0.880E+002
 RTBSE|            2703           0.137                               0.880E+002
 RTBSE|            2704           0.144                               0.880E+002
 RTBSE|            2705           0.158                               0.880E+002
 RTBSE|            2706           0.141                               0.880E+002
 RTBSE|            2707           0.139                               0.880E+002
 RTBSE|            2708           0.141                               0.880E+002
 RTBSE|            2709           0.138                               0.880E+002
 RTBSE|            2710           0.145                               0.880E+002
 RTBSE|            2711           0.149                               0.880E+002
 RTBSE|            2712           0.161                               0.880E+002
 RTBSE|            2713           0.141                               0.880E+002
 RTBSE|            2714           0.145                               0.880E+002
 RTBSE|            2715           0.156                               0.880E+002
 RTBSE|            2716           0.137                               0.880E+002
 RTBSE|            2717           0.140                               0.880E+002
 RTBSE|            2718           0.137                               0.880E+002
 RTBSE|            2719           0.137                               0.880E+002
 RTBSE|            2720           0.150                               0.880E+002
 RTBSE|            2721           0.137                               0.880E+002
 RTBSE|            2722           0.137                               0.880E+002
 RTBSE|            2723           0.147                               0.880E+002
 RTBSE|            2724           0.137                               0.880E+002
 RTBSE|            2725           0.154                               0.880E+002
 RTBSE|            2726           0.148                               0.880E+002
 RTBSE|            2727           0.137                               0.880E+002
 RTBSE|            2728           0.151                               0.880E+002
 RTBSE|            2729           0.149                               0.880E+002
 RTBSE|            2730           0.143                               0.880E+002
 RTBSE|            2731           0.147                               0.880E+002
 RTBSE|            2732           0.137                               0.880E+002
 RTBSE|            2733           0.153                               0.880E+002
 RTBSE|            2734           0.144                               0.880E+002
 RTBSE|            2735           0.174                               0.880E+002
 RTBSE|            2736           0.145                               0.880E+002
 RTBSE|            2737           0.152                               0.880E+002
 RTBSE|            2738           0.145                               0.880E+002
 RTBSE|            2739           0.142                               0.880E+002
 RTBSE|            2740           0.137                               0.880E+002
 RTBSE|            2741           0.136                               0.880E+002
 RTBSE|            2742           0.156                               0.880E+002
 RTBSE|            2743           0.156                               0.880E+002
 RTBSE|            2744           0.155                               0.880E+002
 RTBSE|            2745           0.147                               0.880E+002
 RTBSE|            2746           0.156                               0.880E+002
 RTBSE|            2747           0.138                               0.880E+002
 RTBSE|            2748           0.156                               0.880E+002
 RTBSE|            2749           0.145                               0.880E+002
 RTBSE|            2750           0.149                               0.880E+002
 RTBSE|            2751           0.140                               0.880E+002
 RTBSE|            2752           0.145                               0.880E+002
 RTBSE|            2753           0.137                               0.880E+002
 RTBSE|            2754           0.154                               0.880E+002
 RTBSE|            2755           0.153                               0.880E+002
 RTBSE|            2756           0.139                               0.880E+002
 RTBSE|            2757           0.145                               0.880E+002
 RTBSE|            2758           0.138                               0.880E+002
 RTBSE|            2759           0.137                               0.880E+002
 RTBSE|            2760           0.139                               0.880E+002
 RTBSE|            2761           0.157                               0.880E+002
 RTBSE|            2762           0.159                               0.880E+002
 RTBSE|            2763           0.145                               0.880E+002
 RTBSE|            2764           0.145                               0.880E+002
 RTBSE|            2765           0.143                               0.880E+002
 RTBSE|            2766           0.152                               0.880E+002
 RTBSE|            2767           0.139                               0.880E+002
 RTBSE|            2768           0.145                               0.880E+002
 RTBSE|            2769           0.152                               0.880E+002
 RTBSE|            2770           0.149                               0.880E+002
 RTBSE|            2771           0.145                               0.880E+002
 RTBSE|            2772           0.154                               0.880E+002
 RTBSE|            2773           0.137                               0.880E+002
 RTBSE|            2774           0.147                               0.880E+002
 RTBSE|            2775           0.144                               0.880E+002
 RTBSE|            2776           0.144                               0.880E+002
 RTBSE|            2777           0.137                               0.880E+002
 RTBSE|            2778           0.150                               0.880E+002
 RTBSE|            2779           0.156                               0.880E+002
 RTBSE|            2780           0.141                               0.880E+002
 RTBSE|            2781           0.139                               0.880E+002
 RTBSE|            2782           0.153                               0.880E+002
 RTBSE|            2783           0.137                               0.880E+002
 RTBSE|            2784           0.138                               0.880E+002
 RTBSE|            2785           0.146                               0.880E+002
 RTBSE|            2786           0.177                               0.880E+002
 RTBSE|            2787           0.146                               0.880E+002
 RTBSE|            2788           0.146                               0.880E+002
 RTBSE|            2789           0.144                               0.880E+002
 RTBSE|            2790           0.153                               0.880E+002
 RTBSE|            2791           0.147                               0.880E+002
 RTBSE|            2792           0.307                               0.880E+002
 RTBSE|            2793           0.140                               0.880E+002
 RTBSE|            2794           0.137                               0.880E+002
 RTBSE|            2795           0.149                               0.880E+002
 RTBSE|            2796           0.146                               0.880E+002
 RTBSE|            2797           0.146                               0.880E+002
 RTBSE|            2798           0.146                               0.880E+002
 RTBSE|            2799           0.152                               0.880E+002
 RTBSE|            2800           0.138                               0.880E+002
 RTBSE|            2801           0.147                               0.880E+002
 RTBSE|            2802           0.147                               0.880E+002
 RTBSE|            2803           0.146                               0.880E+002
 RTBSE|            2804           0.140                               0.880E+002
 RTBSE|            2805           0.142                               0.880E+002
 RTBSE|            2806           0.158                               0.880E+002
 RTBSE|            2807           0.137                               0.880E+002
 RTBSE|            2808           0.137                               0.880E+002
 RTBSE|            2809           0.143                               0.880E+002
 RTBSE|            2810           0.183                               0.880E+002
 RTBSE|            2811           0.154                               0.880E+002
 RTBSE|            2812           0.146                               0.880E+002
 RTBSE|            2813           0.142                               0.880E+002
 RTBSE|            2814           0.147                               0.880E+002
 RTBSE|            2815           0.153                               0.880E+002
 RTBSE|            2816           0.199                               0.880E+002
 RTBSE|            2817           0.145                               0.880E+002
 RTBSE|            2818           0.137                               0.880E+002
 RTBSE|            2819           0.140                               0.880E+002
 RTBSE|            2820           0.149                               0.880E+002
 RTBSE|            2821           0.137                               0.880E+002
 RTBSE|            2822           0.142                               0.880E+002
 RTBSE|            2823           0.191                               0.880E+002
 RTBSE|            2824           0.138                               0.880E+002
 RTBSE|            2825           0.138                               0.880E+002
 RTBSE|            2826           0.143                               0.880E+002
 RTBSE|            2827           0.141                               0.880E+002
 RTBSE|            2828           0.147                               0.880E+002
 RTBSE|            2829           0.136                               0.880E+002
 RTBSE|            2830           0.183                               0.880E+002
 RTBSE|            2831           0.153                               0.880E+002
 RTBSE|            2832           0.151                               0.880E+002
 RTBSE|            2833           0.159                               0.880E+002
 RTBSE|            2834           0.137                               0.880E+002
 RTBSE|            2835           0.142                               0.880E+002
 RTBSE|            2836           0.142                               0.880E+002
 RTBSE|            2837           0.142                               0.880E+002
 RTBSE|            2838           0.138                               0.880E+002
 RTBSE|            2839           0.137                               0.880E+002
 RTBSE|            2840           0.142                               0.880E+002
 RTBSE|            2841           0.146                               0.880E+002
 RTBSE|            2842           0.139                               0.880E+002
 RTBSE|            2843           0.148                               0.880E+002
 RTBSE|            2844           0.139                               0.880E+002
 RTBSE|            2845           0.149                               0.880E+002
 RTBSE|            2846           0.140                               0.880E+002
 RTBSE|            2847           0.140                               0.880E+002
 RTBSE|            2848           0.150                               0.880E+002
 RTBSE|            2849           0.140                               0.880E+002
 RTBSE|            2850           0.141                               0.880E+002
 RTBSE|            2851           0.148                               0.880E+002
 RTBSE|            2852           0.136                               0.880E+002
 RTBSE|            2853           0.146                               0.880E+002
 RTBSE|            2854           0.143                               0.880E+002
 RTBSE|            2855           0.139                               0.880E+002
 RTBSE|            2856           0.153                               0.880E+002
 RTBSE|            2857           0.186                               0.880E+002
 RTBSE|            2858           0.175                               0.880E+002
 RTBSE|            2859           0.141                               0.880E+002
 RTBSE|            2860           0.145                               0.880E+002
 RTBSE|            2861           0.145                               0.880E+002
  GREENX FT_PADE| n_pade, n_fit, window [eV]   484     968     0.0000    19.9960
  GREENX FT_PADE| n_pade, n_fit, window [eV]   484     968     0.0000    19.9960
  GREENX FT_PADE| n_pade, n_fit, window [eV]   484     968     0.0000    19.9960
 STATIC_POL|         spin  element Re [a.u.]              Im [a.u.]
 STATIC_POL|            1    1,  2     -1.0214379259E-002     -1.2700269217E-015
 STATIC_POL|            1    2,  2      6.1792862291E+002     -1.1025497685E-013
 STATIC_POL|            1    3,  2     -2.4941364272E-002      4.0131871899E-016

 -------------------------------------------------------------------------------
 -                                                                             -
 -                                DBCSR STATISTICS                             -
 -                                                                             -
 -------------------------------------------------------------------------------
 COUNTER                                    TOTAL       BLAS       SMM       ACC
 flops     6 x     6 x     4              1449216       0.0%    100.0%      0.0%     
 flops     3 x     3 x     5              3079440       0.0%    100.0%      0.0%     
 flops    13 x     6 x     4              5171712       0.0%    100.0%      0.0%     
 flops     6 x    13 x     4              5171712       0.0%    100.0%      0.0%     
 flops     3 x    27 x     5             15837120       0.0%    100.0%      0.0%     
 flops    27 x     3 x     5             17055360       0.0%    100.0%      0.0%     
 flops    13 x    13 x     4             20309744       0.0%    100.0%      0.0%     
 flops     5 x     5 x     3             23632500       0.0%    100.0%      0.0%     
 flops     3 x     5 x     5             24630750       0.0%    100.0%      0.0%     
 flops     3 x     5 x     3             24718320       0.0%    100.0%      0.0%     
 flops     3 x     3 x    30             39599280       0.0%    100.0%      0.0%     
 flops     3 x    32 x     5             65694720       0.0%    100.0%      0.0%     
 flops    32 x     3 x     5             70721280       0.0%    100.0%      0.0%     
 flops    27 x    27 x     5             87713280       0.0%    100.0%      0.0%     
 flops     3 x     3 x   100            118540800       0.0%    100.0%      0.0%     
 flops     5 x     5 x    27            120225600       0.0%    100.0%      0.0%     
 flops    27 x     5 x     3            126033570       0.0%    100.0%      0.0%     
 flops    27 x     5 x     5            126705600       0.0%    100.0%      0.0%     
 flops     3 x     5 x    27            129800070       0.0%    100.0%      0.0%     
 flops     3 x     3 x   130            154103040       0.0%    100.0%      0.0%     
 flops     3 x    27 x    30            203653440       0.0%    100.0%      0.0%     
 flops    27 x     3 x    30            213373440       0.0%    100.0%      0.0%     
 flops    30 x     5 x     3            248144400       0.0%    100.0%      0.0%     
 flops     5 x    30 x     3            248787000       0.0%    100.0%      0.0%     
 flops     3 x    30 x     3            261537660       0.0%    100.0%      0.0%     
 flops     3 x     5 x    30            264272400       0.0%    100.0%      0.0%     
 flops     3 x    30 x     5            264308400       0.0%    100.0%      0.0%     
 flops    32 x    27 x     5            363709440       0.0%    100.0%      0.0%     
 flops    27 x    32 x     5            363847680       0.0%    100.0%      0.0%     
 flops     5 x     5 x    32            506547200       0.0%    100.0%      0.0%     
 flops    32 x     5 x     5            525593600       0.0%    100.0%      0.0%     
 flops    32 x     5 x     3            533496000       0.0%    100.0%      0.0%     
 flops     3 x     5 x    32            547489920       0.0%    100.0%      0.0%     
 flops     3 x    27 x   100            609638400       0.0%    100.0%      0.0%     
 flops    27 x     3 x   100            609638400       0.0%    100.0%      0.0%     
 flops    27 x     5 x    27            661654980       0.0%    100.0%      0.0%     
 flops     3 x    27 x   130            792529920       0.0%    100.0%      0.0%     
 flops    27 x     3 x   130            792529920       0.0%    100.0%      0.0%     
 flops     3 x    32 x    30            844784640       0.0%    100.0%      0.0%     
 flops    32 x     3 x    30            884620800       0.0%    100.0%      0.0%     
 flops    27 x    27 x    30           1097349120       0.0%    100.0%      0.0%     
 flops    30 x     5 x    27           1262368800       0.0%    100.0%      0.0%     
 flops     5 x    30 x    27           1268006400       0.0%    100.0%      0.0%     
 flops    27 x    30 x     3           1335076020       0.0%    100.0%      0.0%     
 flops    27 x     5 x    30           1359115200       0.0%    100.0%      0.0%     
 flops    27 x    30 x     5           1359374400       0.0%    100.0%      0.0%     
 flops     3 x    30 x    27           1370019420       0.0%    100.0%      0.0%     
 flops    32 x    32 x     5           1508720640       0.0%    100.0%      0.0%     
 flops     3 x    32 x   100           2528870400       0.0%    100.0%      0.0%     
 flops    32 x     3 x   100           2528870400       0.0%    100.0%      0.0%     
 flops    30 x    30 x     3           2612282400       0.0%    100.0%      0.0%     
 flops    27 x     5 x    32           2792093760       0.0%    100.0%      0.0%     
 flops    32 x     5 x    27           2802496320       0.0%    100.0%      0.0%     
 flops     3 x    30 x    30           2854807200       0.0%    100.0%      0.0%     
 flops    27 x    27 x   100           3135283200       0.0%    100.0%      0.0%     
 flops     3 x    32 x   130           3287531520       0.0%    100.0%      0.0%     
 flops    32 x     3 x   130           3287531520       0.0%    100.0%      0.0%     
 flops    27 x    27 x   130           4075868160       0.0%    100.0%      0.0%     
 flops    32 x    27 x    30           4549478400       0.0%    100.0%      0.0%     
 flops    27 x    32 x    30           4551966720       0.0%    100.0%      0.0%     
 flops    30 x     5 x    32           5318745600       0.0%    100.0%      0.0%     
 flops     5 x    30 x    32           5326848000       0.0%    100.0%      0.0%     
 flops    32 x     5 x    30           5637811200       0.0%    100.0%      0.0%     
 flops    32 x    30 x     5           5638886400       0.0%    100.0%      0.0%     
 flops    32 x    30 x     3           5642749440       0.0%    100.0%      0.0%     
 flops     3 x    30 x    32           5782487040       0.0%    100.0%      0.0%     
 flops    27 x    30 x    27           6997918860       0.0%    100.0%      0.0%     
 flops    32 x     5 x    32          11779676160       0.0%    100.0%      0.0%     
 flops    27 x    32 x   100          13005619200       0.0%    100.0%      0.0%     
 flops    32 x    27 x   100          13005619200       0.0%    100.0%      0.0%     
 flops    30 x    30 x    27          13314067200       0.0%    100.0%      0.0%     
 flops    27 x    30 x    30          14681865600       0.0%    100.0%      0.0%     
 flops    27 x    32 x   130          16907304960       0.0%    100.0%      0.0%     
 flops    32 x    27 x   130          16907304960       0.0%    100.0%      0.0%     
 flops    32 x    32 x    30          18871910400       0.0%    100.0%      0.0%     
 flops     3 x     6 x     3          23994486684       0.0%    100.0%      0.0%     
 flops     3 x     3 x     6          24057801252       0.0%    100.0%      0.0%     
 flops     3 x     6 x     6          27493662816       0.0%    100.0%      0.0%     
 flops    27 x    30 x    32          29487110400       0.0%    100.0%      0.0%     
 flops    32 x    30 x    27          29589287040       0.0%    100.0%      0.0%     
 flops     6 x     6 x     3          49617598464       0.0%    100.0%      0.0%     
 flops    32 x    32 x   100          53949235200       0.0%    100.0%      0.0%     
 flops    30 x    30 x    32          55931904000       0.0%    100.0%      0.0%     
 flops    32 x    30 x    30          60902553600       0.0%    100.0%      0.0%     
 flops    32 x    32 x   130          70134005760       0.0%    100.0%      0.0%     
 flops     3 x     6 x    27         102365534592       0.0%    100.0%      0.0%     
 flops     3 x    27 x     6         102629202228       0.0%    100.0%      0.0%     
 flops     3 x    13 x     6         104254677072       0.0%    100.0%      0.0%     
 flops     3 x    13 x     3         110284823142       0.0%    100.0%      0.0%     
 flops     3 x     3 x    13         110584103058       0.0%    100.0%      0.0%     
 flops    27 x     6 x     6         117287262576       0.0%    100.0%      0.0%     
 flops    27 x     6 x     3         123404745780       0.0%    100.0%      0.0%     
 flops    27 x     3 x     6         123724256760       0.0%    100.0%      0.0%     
 flops    32 x    30 x    32         124102287360       0.0%    100.0%      0.0%     
 flops     3 x     6 x    13         126376763760       0.0%    100.0%      0.0%     
 flops     6 x     6 x    27         194344306344       0.0%    100.0%      0.0%     
 flops     6 x    13 x     3         202668329448       0.0%    100.0%      0.0%     
 flops    13 x     6 x     3         224726614164       0.0%    100.0%      0.0%     
 flops    27 x    13 x     6         444747421872       0.0%    100.0%      0.0%     
 flops     3 x    13 x    13         479213548632       0.0%    100.0%      0.0%     
 flops     3 x    13 x    27         499000075236       0.0%    100.0%      0.0%     
 flops     3 x    27 x    13         500333668146       0.0%    100.0%      0.0%     
 flops    32 x     6 x     3         511910144640       0.0%    100.0%      0.0%     
 flops    32 x     3 x     6         513262250496       0.0%    100.0%      0.0%     
 flops    27 x     6 x    27         526468015692       0.0%    100.0%      0.0%     
 flops    27 x    27 x     6         527801464584       0.0%    100.0%      0.0%     
 flops    27 x    13 x     3         567202750452       0.0%    100.0%      0.0%     
 flops    27 x     3 x    13         568705969026       0.0%    100.0%      0.0%     
 flops    27 x     6 x    13         571782875040       0.0%    100.0%      0.0%     
 flops     3 x     6 x    32         602918199936       0.0%    100.0%      0.0%     
 flops     3 x    32 x     6         604472224896       0.0%    100.0%      0.0%     
 flops    32 x     6 x     6         690800928768       0.0%    100.0%      0.0%     
 flops     6 x    13 x    27         818056438524       0.0%    100.0%      0.0%     
 flops    13 x    13 x     3         927624156108       0.0%    100.0%      0.0%     
 flops    13 x     6 x    27         944751882204       0.0%    100.0%      0.0%     
 flops     6 x     6 x    32        1325866825728       0.0%    100.0%      0.0%     
 flops    27 x    13 x    13        2168174208096       0.0%    100.0%      0.0%     
 flops    32 x     6 x    27        2183897531520       0.0%    100.0%      0.0%     
 flops    32 x    27 x     6        2189532892032       0.0%    100.0%      0.0%     
 flops    32 x    13 x     3        2352885218112       0.0%    100.0%      0.0%     
 flops    32 x     3 x    13        2359238673792       0.0%    100.0%      0.0%     
 flops     3 x    13 x    32        2466807520320       0.0%    100.0%      0.0%     
 flops     3 x    32 x    13        2473364457408       0.0%    100.0%      0.0%     
 flops    27 x    13 x    27        2566387654038       0.0%    100.0%      0.0%     
 flops    27 x    27 x    13        2573093048526       0.0%    100.0%      0.0%     
 flops    32 x    13 x     6        2619476071680       0.0%    100.0%      0.0%     
 flops    32 x     6 x    13        2826547646208       0.0%    100.0%      0.0%     
 flops    27 x     6 x    32        3100817023488       0.0%    100.0%      0.0%     
 flops    27 x    32 x     6        3108668834304       0.0%    100.0%      0.0%     
 flops    13 x    13 x    27        3985485474672       0.0%    100.0%      0.0%     
 flops     6 x    13 x    32        5182723757952       0.0%    100.0%      0.0%     
 flops    13 x     6 x    32        5389172675328       0.0%    100.0%      0.0%     
 flops    32 x    13 x    27       10645932435840       0.0%    100.0%      0.0%     
 flops    32 x    27 x    13       10674214050240       0.0%    100.0%      0.0%     
 flops    32 x    13 x    13       10718086862080       0.0%    100.0%      0.0%     
 flops    27 x    13 x    32       12686805638208       0.0%    100.0%      0.0%     
 flops    27 x    32 x    13       12719792225088       0.0%    100.0%      0.0%     
 flops    32 x     6 x    32       12862832062464       0.0%    100.0%      0.0%     
 flops    32 x    32 x     6       12896050053120       0.0%    100.0%      0.0%     
 flops    13 x    13 x    32       21177208507520       0.0%    100.0%      0.0%     
 flops    32 x    13 x    32       52627462744064       0.0%    100.0%      0.0%     
 flops    32 x    32 x    13       52766381690880       0.0%    100.0%      0.0%     
 flops inhomo. stacks                           0       0.0%      0.0%      0.0%
 flops total                       271.357175E+12       0.0%    100.0%      0.0%
 flops max/rank                     10.436282E+12       0.0%    100.0%      0.0%
 matmuls inhomo. stacks                         0       0.0%      0.0%      0.0%
 matmuls total                        29920032609       0.0%    100.0%      0.0%
 number of processed stacks            2367168365       0.0%    100.0%      0.0%
 average stack size                                     0.0      12.6       0.0
 marketing flops                   293.167153E+12
 -------------------------------------------------------------------------------
 # multiplications                         115005
 max memory usage/rank               5.681594E+09
 # max total images/rank                        2
 # max 3D layers                                1
 # MPI messages exchanged                47842080
 MPI messages size (bytes):
  total size                        14.383890E+12
  min size                           0.000000E+00
  max size                           1.717040E+06
  average size                     300.653500E+03
 MPI breakdown and total messages size (bytes):
             size <=      128               23943                        0
       128 < size <=     8192                2086                  6271736
      8192 < size <=    32768             4425296             117007225640
     32768 < size <=   131072            11570575            1309715331456
    131072 < size <=  4194304            31820180           12951033460928
   4194304 < size <= 16777216                   0                        0
  16777216 < size                               0                        0
 -------------------------------------------------------------------------------

 *** WARNING in dbcsr_mm.F:301 :: Using a non-square number of MPI ranks ***
 *** might lead to poor performance. Used ranks: 32 Suggested: 36 64     ***

 -------------------------------------------------------------------------------
 -                                                                             -
 -                      DBCSR MESSAGE PASSING PERFORMANCE                      -
 -                                                                             -
 -------------------------------------------------------------------------------
 ROUTINE             CALLS      AVE VOLUME [Bytes]
 MP_Bcast              143                     12.
 MP_Allreduce       460439                     25.
 MP_Alltoall        943137                  24010.
 MP_ISend          4831754                 102505.
 MP_IRecv          4829840                  97543.
 -------------------------------------------------------------------------------

 -------------------------------------------------------------------------------
 -                                                                             -
 -                                GRID STATISTICS                              -
 -                                                                             -
 -------------------------------------------------------------------------------
 LP    KERNEL             BACKEND                              COUNT     PERCENT
 4     collocate ortho    CPU                                  21014      29.80%
 4     integrate ortho    CPU                                  21014      29.80%
 3     collocate ortho    CPU                                  12198      17.30%
 3     integrate ortho    CPU                                  12198      17.30%
 2     collocate ortho    CPU                                   1976       2.80%
 2     integrate ortho    CPU                                   1976       2.80%
 0     collocate general  CPU                                     88       0.12%
 0     integrate general  CPU                                     44       0.06%
 -------------------------------------------------------------------------------

 -------------------------------------------------------------------------------
 -                                                                             -
 -                          OFFLOAD MEMPOOL STATISTICS                         -
 -                                                                             -
 -------------------------------------------------------------------------------
 Memory consumption                Number of allocations  Used [MiB]  Size [MiB]
 Host                                                  6          31           0
 -------------------------------------------------------------------------------

 MEMORY| Estimated peak process memory [MiB]                                1244

 -------------------------------------------------------------------------------
 ----                             MULTIGRID INFO                            ----
 -------------------------------------------------------------------------------
 count for grid        1:         150110          cutoff [a.u.]          300.00
 count for grid        2:         122965          cutoff [a.u.]          100.00
 count for grid        3:         125554          cutoff [a.u.]           33.33
 count for grid        4:          69272          cutoff [a.u.]           11.11
 total gridlevel count  :         467901

 -------------------------------------------------------------------------------
 -                                                                             -
 -                         MESSAGE PASSING PERFORMANCE                         -
 -                                                                             -
 -------------------------------------------------------------------------------

 ROUTINE             CALLS      AVE VOLUME [Bytes]
 MP_Group               24
 MP_Bcast              311                 180572.
 MP_Allreduce       116491                  10261.
 MP_Sync                46
 MP_Alltoall           766               18298475.
 MP_SendRecv          2356                  86400.
 MP_ISendRecv         2356                  86400.
 MP_Wait              4929
 MP_comm_split          53
 MP_ISend             2040                1005577.
 MP_IRecv             2040                1005577.
 -------------------------------------------------------------------------------


 -------------------------------------------------------------------------------
 -                                                                             -
 -                           R E F E R E N C E S                               -
 -                                                                             -
 -------------------------------------------------------------------------------
 
 CP2K version 2026.2 (Development Version), the CP2K developers group (2026).
 CP2K is freely available from https://www.cp2k.org/ .
 
 M. Iannuzzi, J. Wilhelm, F. Stein, A. Bussy, H. Elgabarty, D. Golze, A. Hehn, 
 M. Graml, S. Marek, B. Sertcan Gökmen, C. Schran, H. Forbert, R. Z. 
 Khaliullin, A. Kozhevnikov, M. Taillefumier, R. Meli, V. V. Rybkin, M. Brehm, 
 R. Schade, O. Schütt, J. V. Pototschnig, H. Mirhosseini, A. Knüpfer, D. Marx, 
 M. Krack, J. Hutter, T. D. Kühne.
 J. Phys. Chem. B 130, 1237-1310 (2026).
 The CP2K Program Package Made Simple.
 https://doi.org/10.1021/acs.jpcb.5c05851

 M. Graml, K. Zollner, D. Hernangómez-Pérez, P. E. Faria Junior, J. Wilhelm.
 J. Chem. Theory Comput. 20, 2202-2208 (2024).
 Low-scaling GW algorithm applied to twisted transition-metal dichalcogenide 
 heterobilayers.
 https://doi.org/10.1021/acs.jctc.3c01230

 T. D. Kühne, M. Iannuzzi, M. Del Ben, V. V. Rybkin, P. Seewald, F. Stein, T. 
 Laino, R. Z. Khaliullin, O. Schütt, F. Schiffmann, D. Golze, J. Wilhelm, S. 
 Chulkov, M. H. Bani-Hashemian, V. Weber, U. Borstnik, M. Taillefumier, A. S. 
 Jakobovits, A. Lazzaro, H. Pabst, T. Müller, R. Schade, M. Guidon, S. 
 Andermatt, N. Holmberg, G. K. Schenter, A. Hehn, A. Bussy, F. Belleflamme, G. 
 Tabacchi, A. Glöß, M. Lass, I. Bethune, C. J. Mundy, C. Plessl, M. Watkins, 
 J. VandeVondele, M. Krack, J. Hutter.
 J. Chem. Phys. 152, 194103 (2020).
 CP2K: An electronic structure and molecular dynamics software package - 
 Quickstep: Efficient and accurate electronic structure calculations.
 https://doi.org/10.1063/5.0007045

 O. Schuett, P. Messmer, J. Hutter, J. VandeVondele.
 Electronic Structure Calculations on Graphics Processing Units, 173-190 (2016).
 GPU-Accelerated Sparse Matrix-Matrix Multiplication for Linear Scaling Density 
 Functional Theory.
 https://doi.org/10.1002/9781118670712.ch8

 A. Heinecke, G. Henry, M. Hutchinson, H. Pabst.
 Proceedings of Intl. Supercomputing Conference, 981-991 (2016).
 LIBXSMM: Accelerating Small Matrix Multiplications by Runtime Code Generation.
 https://doi.org/10.1109/SC.2016.83

 U. Borstnik, J. VandeVondele, V. Weber, J. Hutter.
 Parallel Comput. 40, 47-58 (2014).
 Sparse matrix multiplication: The distributed block-compressed sparse row 
 library.
 https://doi.org/10.1016/j.parco.2014.03.012

 A. Marek, V. Blum, R. Johanni, V. Havu, B. Lang, T. Auckenthaler, A. Heinecke, 
 H. Bungartz, H. Lederer.
 J. Phys. Condens. Matter 26, 213201 (2014).
 The ELPA library: scalable parallel eigenvalue solutions for electronic 
 structure theory and computational science.
 https://doi.org/10.1088/0953-8984/26/21/213201

 J. VandeVondele, J. Hutter.
 J. Chem. Phys. 127, 114105 (2007).
 Gaussian basis sets for accurate calculations on molecular systems in gas and 
 condensed phases.
 https://doi.org/10.1063/1.2770708

 J. VandeVondele, M. Krack, F. Mohamed, M. Parrinello, T. Chassaing, J. Hutter.
 Comput. Phys. Commun. 167, 103-128 (2005).
 QUICKSTEP: Fast and accurate density functional calculations using a mixed 
 Gaussian and plane waves approach.
 https://doi.org/10.1016/j.cpc.2004.12.014

 M. Krack.
 Theor. Chem. Acc. 114, 145-152 (2005).
 Pseudopotentials for H to Kr optimized for gradient-corrected 
 exchange-correlation functionals.
 https://doi.org/10.1007/s00214-005-0655-y

 M. Frigo, S. G. Johnson.
 Proc. IEEE 93, 216-231 (2005).
 The design and implementation of FFTW3.
 https://doi.org/10.1109/JPROC.2004.840301

 C. Hartwigsen, S. Goedecker, J. Hutter.
 Phys. Rev. B 58, 3641-3662 (1998).
 Relativistic separable dual-space Gaussian pseudopotentials from H to Rn.
 https://doi.org/10.1103/PhysRevB.58.3641

 G. Lippert, J. Hutter, M. Parrinello.
 Mol. Phys. 92, 477-487 (1997).
 A hybrid Gaussian and plane wave density functional scheme.
 https://doi.org/10.1080/002689797170220

 S. Goedecker, M. Teter, J. Hutter.
 Phys. Rev. B 54, 1703-1710 (1996).
 Separable dual-space Gaussian pseudopotentials.
 https://doi.org/10.1103/PhysRevB.54.1703

 J. P. Perdew, K. Burke, M. Ernzerhof.
 Phys. Rev. Lett. 77, 3865-3868 (1996).
 Generalized gradient approximation made simple.
 https://doi.org/10.1103/PhysRevLett.77.3865

 P. E. Blöchl.
 J. Chem. Phys. 103, 7422-7428 (1995).
 Electrostatic decoupling of periodic images of plane‐wave‐expanded 
 densities and derived atomic point charges.
 https://doi.org/10.1063/1.470314

 R. H. Byrd, P. H. Lu, J. Nocedal, C. Y. Zhu.
 SIAM J. Sci. Comput. 16, 1190-1208 (1995).
 A Limited Memory Algorithm for Bound Constrained Optimization.
 https://doi.org/10.1137/0916069

 C. G. Broyden.
 Math. Comput. 19, 577-593 (1965).
 A class of methods for solving nonlinear simultaneous equations.
 https://doi.org/10.1090/S0025-5718-1965-0198670-6


 -------------------------------------------------------------------------------
 -                                                                             -
 -                                T I M I N G                                  -
 -                                                                             -
 -------------------------------------------------------------------------------
 SUBROUTINE                       CALLS  ASD         SELF TIME        TOTAL TIME
                                MAXIMUM       AVERAGE  MAXIMUM  AVERAGE  MAXIMUM
 CP2K                                 1  1.0    0.004    0.006  530.784  530.850
 run_propagation_linearized_bse       1  2.0    0.105    0.395  530.095  530.595
 solve_rk4_timestep                2862  3.0    0.029    0.037  409.464  409.550
 build_shared_sex_and_hartree     11448  4.0    0.040    0.057  331.123  331.309
 dbcsr_multiply_generic          115005  7.8    2.201    2.472  246.951  252.532
 compute_sigma_ri_rs_complex      11448  5.0    0.059    0.070  245.162  245.482
 compute_sigma_ri_rs              22896  6.0    0.287    0.377  244.807  245.070
 dbcsr_contract_ABA               45793  7.0    0.152    0.161  209.961  212.944
 multiply_cannon                 115005  8.8    4.838    5.141  155.180  165.334
 multiply_cannon_loop            115005  9.8    6.297    7.451  133.208  144.135
 qs_energies                          1  3.0    0.000    0.000  108.582  108.596
 parallel_gemm_fm_cosma          183691  6.0  102.657  103.256  102.657  103.256
 qs_energies_properties               1  4.0    0.000    0.000  100.191  100.203
 post_scf_bandstructure               1  5.0    0.000    0.000  100.191  100.203
 gw                                   1  6.0    0.000    0.000  100.086  100.098
 gw_calc_non_periodic_ri_rs           1  7.0    0.000    0.000   99.443   99.482
 ri_rs_grid_assembler                 1  8.0    0.000    0.001   96.574   96.614
 optimize_ri_rs_grid                  1  9.0    1.489    3.046   96.562   96.606
 mp_sum_d                         23968  4.1   63.820   95.010   63.820   95.010
 evaluate_rirs_grid_cluster         402 10.0   31.787   93.128   31.787   93.128
 multiply_cannon_multrec         920040 10.8   68.991   80.766   69.731   81.321
 mp_waitall_1                   7363237 12.0   50.722   80.801   50.722   80.801
 update_effective_ham_MO          11448  4.0    0.076    0.092   78.301   78.569
 compute_hartree_ri_rs_from_dia   11448  5.0    0.068    0.082   61.181   61.305
 hartree_potential_from_diag_ri   22896  6.0    1.733    2.456   60.949   61.136
 make_m2s                        230010  8.8    1.062    1.614   58.722   61.007
 make_images                     230010  9.8   11.320   14.980   56.528   58.921
 multiply_cannon_metrocomm3      920040 10.8    0.855    0.903   27.603   57.697
 transform_ao_to_mo_covariant_c   22896  5.0    0.043    0.050   51.769   52.114
 transform_mo_to_ao_contravaria   22897  5.0    0.042    0.050   50.293   50.967
 copy_dbcsr_to_fm                 45936  7.0    0.266    0.286   35.660   40.670
 dbcsr_complete_redistribute      69061  8.0    3.666    4.525   32.158   33.102
 make_images_data                230010 10.8    1.474    1.741   24.713   27.605
 calculate_norms                1838512 10.8   20.372   25.325   20.372   25.325
 hybrid_alltoall_any             275950 11.3    2.324    6.508   19.753   23.980
 mp_sum_l                        345258  8.8   16.459   23.145   16.459   23.145
 buffer_matrices_ensure_size     230010  9.8    8.311   15.639    8.311   15.639
 mp_cart_sub                      91886  9.0   15.047   15.082   15.047   15.082
 mp_sum_dv                        91928  7.0    8.967   13.040    8.967   13.040
 mp_alltoall_i22                 115001  9.0    8.164   12.576    8.164   12.576
 dbcsr_desymmetrize_deep          45940  8.0    0.923    1.492    7.217   12.399
 multiply_cannon_metrocomm1      920040 10.8    0.488    0.523    4.508   12.387
 make_images_sizes               230010 10.8    0.101    0.125    9.392   11.096
 mp_alltoall_i44                 230010 11.8    9.291   11.015    9.291   11.015
 dbcsr_finalize                  231502  8.9    0.857    0.940    9.268   10.116
 scf_env_do_scf                       1  4.0    0.000    0.000    8.047    8.048
 scf_env_do_scf_inner_loop           37  5.0    0.001    0.003    8.047    8.048
 mp_allgather_i34                115005  9.8    4.716    7.870    4.716    7.870
 make_images_pack                230010 10.8    2.627    5.941    3.733    7.079
 dbcsr_merge_all                 185271  9.9    3.335    3.818    6.253    6.828
 copy_fm_to_dbcsr                 23125  7.0    0.051    0.061    6.241    6.675
 dbcsr_special_finalize          345015 10.8    0.733    0.823    5.329    6.195
 print_ft                             1  3.0    0.001    0.030    5.348    5.796
 greenx_refine_ft                     3  4.0    5.347    5.795    5.347    5.795
 multiply_cannon_metrocomm2      690030 10.8    1.106    1.351    2.033    5.277
 mp_isend_dv                    2416387 12.1    1.180    4.783    1.180    4.783
 dbcsr_merge_single_wm           230010 11.8    1.664    2.068    3.608    4.528
 qs_ks_build_kohn_sham_matrix        38  8.0    0.005    0.005    3.929    3.932
 dbcsr_add_wm_from_matrix         23095  9.0    1.900    2.708    2.928    3.897
 qs_ks_update_qs_env                 37  6.0    0.000    0.000    3.885    3.887
 rebuild_ks_matrix                   37  7.0    0.000    0.000    3.881    3.884
 dbcsr_sort_data                 322056 12.2    2.345    3.737    2.345    3.737
 dbcsr_create_new               1357958  9.8    2.301    2.688    3.032    3.716
 hadamard_product_inplace         22896  7.0    3.027    3.680    3.048    3.700
 dbcsr_iterator_start           1105360  9.9    2.270    2.888    2.809    3.607
 fft_wrap_pw1pw2                    676 11.1    0.006    0.008    3.532    3.594
 fft_wrap_pw1pw2_300                448 12.4    0.306    0.440    3.321    3.385
 mp_alltoall_d11v                345079  9.4    2.871    3.222    2.871    3.222
 fft3d_ps                           676 13.1    1.217    1.515    2.870    3.049
 cp_fm_write_formatted             5724  3.0    2.953    3.009    2.963    3.037
 multiply_cannon_metrocomm4      805035 10.8    1.306    1.479    2.664    3.006
 dbcsr_copy                      276149  8.5    1.440    2.322    1.901    2.768
 mp_cart_create                   45966  9.0    2.292    2.705    2.292    2.705
 cp_fm_write_unformatted           5728  3.0    2.507    2.551    2.517    2.602
 dbcsr_work_destroy_all          576226 11.1    1.506    1.748    2.178    2.538
 qs_vxc_create                       38  9.0    0.001    0.001    2.363    2.382
 xc_vxc_pw_create                    37 10.0    0.041    0.042    2.362    2.381
 qs_rho_update_rho_low               38  6.0    0.000    0.000    2.268    2.269
 calculate_rho_elec                  38  7.0    0.034    0.035    2.267    2.268
 dbcsr_fill_wm_from_matrix        23095 10.0    0.700    2.021    0.818    2.148
 dbcsr_work_create               576226 10.1    1.202    1.522    1.649    2.139
 dbcsr_scale_anytype              46817  8.6    0.779    1.081    1.809    2.026
 dbcsr_data_release             8966256 10.7    1.709    1.928    1.709    1.928
 mp_alltoall_z22v                   676 15.1    1.381    1.875    1.381    1.875
 dbcsr_data_new                 5582950 10.3    1.521    1.867    1.521    1.867
 dbcsr_set                        92224  8.5    0.038    0.041    1.246    1.800
 dbcsr_zero                       92224  9.5    1.208    1.762    1.208    1.762
 dbcsr_iterator_stop            1105360  9.9    1.309    1.557    1.488    1.745
 xc_pw_derive                       222 12.0    0.001    0.001    1.687    1.712
 mp_isend_iv                    2645620 11.8    1.265    1.655    1.265    1.655
 dbcsr_destroy                  1311939  8.9    1.010    1.076    1.555    1.644
 mp_alltoall_i11v                253123  9.0    1.468    1.625    1.468    1.625
 dbcsr_make_untransposed_blocks  138091  8.8    0.668    0.774    1.434    1.505
 setup_rec_index_2d              230010  9.8    1.262    1.484    1.262    1.484
 multiply_cannon_multrec_finali  115005 11.8    0.081    0.108    0.740    1.468
 dbcsr_mm_multrec_finalize       115005 12.8    0.456    0.796    0.658    1.391
 dbcsr_sort_indices              667203 12.0    1.146    1.363    1.146    1.363
 dbcsr_mm_multrec_init           115005  9.8    0.074    0.165    1.018    1.361
 setup_buffer_matrices           230010  9.8    0.345    0.515    0.938    1.316
 tree_to_linear_d                 69089 11.0    1.071    1.304    1.071    1.304
 dbcsr_new_transposed             68969  8.7    0.298    0.334    1.072    1.276
 density_rs2pw                       38  8.0    0.001    0.001    1.117    1.238
 xc_pw_divergence                    37 11.0    0.000    0.000    1.178    1.204
 dbcsr_mm_csr_init               115005 10.8    0.654    0.746    0.944    1.196
 cp_cfm_transpose                 22896  5.0    0.855    1.185    0.855    1.185
 grid_collocate_task_list            38  8.0    1.089    1.166    1.089    1.166
 x_to_yz                            374 14.3    0.174    0.216    0.883    1.148
 xc_rho_set_and_dset_create          37 11.0    0.031    0.035    1.122    1.143
 compute_Sigma_c_and_QP_energie       1  8.0    0.000    0.000    1.099    1.111
 dbcsr_make_index_list           345015  9.8    0.997    1.079    0.997    1.079
 sum_up_and_integrate                38  9.0    0.001    0.001    1.064    1.067
 integrate_v_rspace                  38 10.0    0.001    0.001    1.059    1.062
 qs_scf_new_mos                      37  6.0    0.001    0.001    1.029    1.032
 copy_dbcsr_to_fm_bc              45936  8.0    0.633    0.830    0.836    1.008
 quick_finalize                  160945 11.3    0.316    0.381    0.901    0.974
 yz_to_x                            302 13.8    0.088    0.099    0.759    0.974
 compute_Sigma_c                      1  9.0    0.000    0.001    0.946    0.946
 gspace_mixing                       36  6.0    0.032    0.033    0.938    0.938
 mp_irecv_iv                    2644987 11.8    0.577    0.932    0.577    0.932
 eigensolver_symm                    37  7.0    0.002    0.003    0.890    0.891
 cp_fm_trace_a0b0t0               17178  3.0    0.038    0.055    0.549    0.857
 dbcsr_iterator_seek            1105360 10.9    0.539    0.834    0.539    0.834
 cp_fm_diag_elpa                     41  8.0    0.000    0.000    0.808    0.813
 potential_pw2rs                     38 11.0    0.004    0.005    0.807    0.808
 contract_grid_panels_sigma_c        30 10.0    0.001    0.001    0.799    0.800
 cp_fm_redistribute_end              41  9.0    0.399    0.764    0.404    0.768
 compute_W                            1  8.0    0.000    0.000    0.765    0.767
 dbcsr_mm_sched_finalize         115005 13.8    0.150    0.755    0.150    0.755
 copy_fm_to_dbcsr_bc              23125  8.0    0.228    0.286    0.618    0.729
 cp_fm_transpose                  17179  3.0    0.387    0.727    0.387    0.727
 dbcsr_scale_d                    22928  7.0    0.015    0.023    0.649    0.697
 create_and_init_bs_env_for_gw        1  7.0    0.000    0.000    0.643    0.676
 cp_fm_diag_elpa_base                41  9.0    0.324    0.653    0.329    0.664
 broyden_mixing                      36  7.0    0.538    0.633    0.607    0.646
 get_mat_chi_Gamma_tau                1  8.0    0.000    0.000    0.646    0.646
 transfer_rs2pw                     154  9.0    0.002    0.002    0.471    0.598
 contract_grid_panels                31  9.0    0.001    0.001    0.589    0.593
 mp_sum_iv                       115113  9.8    0.479    0.578    0.479    0.578
 dbcsr_data_copy_aa2              92426 11.0    0.310    0.577    0.310    0.577
 mp_waitany                        2012 12.5    0.423    0.570    0.423    0.570
 dbcsr_make_index_exist         1357958 10.8    0.388    0.545    0.388    0.545
 mp_max_l                            22  1.8    0.448    0.535    0.448    0.535
 compute_fm_W_freq                   30  9.0    0.000    0.000    0.518    0.520
 mp_irecv_dv                    2416514 12.1    0.440    0.517    0.440    0.517
 cp_fm_to_cfm                     91589  6.0    0.269    0.476    0.269    0.476
 cp_cfm_to_fm                     80141  5.6    0.262    0.458    0.262    0.458
 mp_comm_free                    138033  9.0    0.418    0.441    0.418    0.441
 transfer_pw2rs                     153 12.0    0.001    0.001    0.426    0.426
 transfer_rs2pw_300                  40  9.9    0.065    0.074    0.275    0.421
 fill_hash_tables                115005 11.8    0.220    0.392    0.220    0.392
 transpose_index_local            68969  9.7    0.073    0.089    0.235    0.386
 setup_time_and_frequency_minim       1  8.0    0.000    0.000    0.336    0.369
 build_minimax_time_frequency_g       1  9.0    0.000    0.000    0.336    0.369
 fit_l_sq_weights                     3 10.0    0.336    0.369    0.336    0.369
 merge_index                     185271 10.9    0.304    0.346    0.304    0.346
 qs_ks_ddapc                         38  9.0    0.000    0.001    0.332    0.342
 mp_bcast_dm                          2 11.5    0.271    0.324    0.271    0.324
 release_dbcsr_topology_and_mat   68691  7.0    0.058    0.065    0.287    0.321
 dbcsr_distribution_new          414820  8.8    0.225    0.302    0.225    0.302
 compute_Z_lP                         1  8.0    0.000    0.000    0.285    0.293
 compute_Z_lP_standard                1  9.0    0.000    0.001    0.285    0.293
 xc_functional_eval                  37 12.0    0.000    0.000    0.248    0.266
 pbe_lda_eval                        37 13.0    0.248    0.266    0.248    0.266
 grid_integrate_task_list            38 11.0    0.224    0.244    0.224    0.244
 dbcsr_make_dbcsr_index          668411 11.9    0.217    0.239    0.217    0.239
 dbcsr_get_diag                   22896  7.0    0.176    0.217    0.198    0.238
 dbcsr_reserve_all_blocks         23128  9.0    0.028    0.040    0.154    0.234
 transfer_pw2rs_300                  39 12.9    0.072    0.087    0.212    0.226
 abc_contract_xsmm                40766 10.1    0.072    0.224    0.072    0.224
 dbcsr_switch_data_area          460209 10.7    0.150    0.161    0.205    0.221
 dbcsr_reserve_blocks             23142 10.0    0.110    0.192    0.126    0.209
 RI_2c_integral_mat                   4  7.2    0.000    0.000    0.199    0.200
 build_G_ao                         121  9.5    0.000    0.001    0.192    0.196
 get_RI_basis                         1  8.0    0.000    0.000    0.193    0.194
 compute_Minv_Gamma                   1  9.0    0.000    0.000    0.193    0.194
 build_2c_integrals                   4  8.2    0.009    0.179    0.180    0.181
 get_electron_number_MO            2862  3.0    0.005    0.007    0.125    0.174
 fft_wrap_pw1pw2_100                 76 11.5    0.008    0.008    0.153    0.172
 pw_gather_p                        302 12.8    0.147    0.172    0.147    0.172
 mp_sync                             46  9.8    0.094    0.165    0.094    0.165
 cp_cfm_scale_and_add             88733  5.0    0.103    0.161    0.103    0.161
 G_occ_vir                          121 10.5    0.003    0.004    0.153    0.160
 mp_recv_dv                       91626  4.0    0.005    0.158    0.005    0.158
 dbcsr_make_index_local_row      345015  9.8    0.121    0.158    0.121    0.158
 transfer_pw2rs_100                  38 13.0    0.027    0.032    0.130    0.157
 compute_QP_energies                  1  9.0    0.000    0.000    0.152    0.156
 transfer_rs2pw_100                  38 10.0    0.026    0.030    0.114    0.154
 init_scf_run                         1  4.0    0.000    0.000    0.151    0.152
 qs_energies_init_hamiltonians        1  4.0    0.000    0.000    0.151    0.151
 gw_3c_ctx_create                     2 10.0    0.005    0.142    0.106    0.150
 qs_env_update_s_mstruct              1  5.0    0.000    0.000    0.148    0.148
 pw_poisson_solve                    38  9.0    0.000    0.000    0.141    0.146
 pw_integral_ab_c1d_c1d_gs           76 10.5    0.118    0.134    0.139    0.143
 cp_fm_cholesky_invert               31 10.0    0.136    0.138    0.136    0.138
 pw_scatter_p                       374 13.3    0.110    0.136    0.110    0.136
 dbcsr_get_local_rows            115005  8.8    0.061    0.132    0.061    0.132
 calculate_rho_core                   1  6.0    0.002    0.003    0.123    0.129
 to_Gamma_and_mo_real                62 10.0    0.001    0.001    0.128    0.128
 compute_d_lp                         2 10.0    0.044    0.085    0.064    0.125
 scf_env_initial_rho_setup            1  5.0    0.000    0.000    0.114    0.116
 cp_ddapc_apply_CD                   38 10.0    0.001    0.003    0.108    0.112
 pw_copy                            603 11.6    0.095    0.111    0.095    0.111
 create_qs_kind_set                   1  2.0    0.000    0.000    0.108    0.109
 read_qs_kind                         2  3.0    0.020    0.028    0.108    0.109
 cp_fm_redistribute_start            41  9.0    0.067    0.098    0.075    0.107
 setup_square_topology            45918  7.0    0.066    0.074    0.096    0.104
 parser_read_line                 20832  4.0    0.002    0.002    0.102    0.103
 parser_read_line_low                26  5.1    0.001    0.019    0.100    0.101
 broadcast_input_information         26  6.1    0.011    0.025    0.099    0.101
 qs_init_subsys                       1  2.0    0.000    0.000    0.100    0.100
 qs_env_setup                         1  3.0    0.000    0.000    0.099    0.099
 qs_env_rebuild_pw_env                2  4.0    0.000    0.000    0.099    0.099
 pw_env_rebuild                       1  5.0    0.000    0.000    0.098    0.099
 calculate_dm_sparse                 37  7.0    0.000    0.000    0.096    0.098
 cp_dbcsr_plus_fm_fm_t               37  8.0    0.001    0.001    0.095    0.097
 dbcsr_get_local_cols            115005  8.8    0.053    0.097    0.053    0.097
 dbcsr_mm_sched_init             115005 11.8    0.052    0.067    0.071    0.096
 pw_grid_setup                        4  6.0    0.000    0.000    0.095    0.095
 pw_grid_setup_internal               4  7.0    0.001    0.001    0.095    0.095
 pw_derive                          336 12.3    0.081    0.086    0.081    0.086
 compute_fm_chi_Gamma_freq           30  9.0    0.000    0.000    0.080    0.083
 multrec_filtering                92010 13.8    0.052    0.082    0.052    0.082
 transfer_pw2rs_40                   38 13.0    0.022    0.026    0.065    0.074
 dbcsr_get_data_size_used        231211  9.9    0.065    0.073    0.065    0.073
 cp_fm_cholesky_decompose            33 10.0    0.066    0.072    0.066    0.072
 cp_fm_create                     34901  6.1    0.058    0.070    0.058    0.070
 mp_bcast_am_src                     26  7.1    0.061    0.069    0.061    0.069
 dbcsr_binary_write                   1 10.0    0.061    0.068    0.061    0.068
 mp_send_dv                       11452  4.0    0.016    0.068    0.016    0.068
 transfer_rs2pw_40                   38 10.0    0.021    0.024    0.059    0.067
 compute_Sigma_x                      1  8.0    0.000    0.000    0.062    0.062
 mp_sendrecv_dv                    2356 11.0    0.053    0.059    0.053    0.059
 eval_bandstructure_properties        1  6.0    0.000    0.000    0.058    0.059
 compute_V_xc                         1  8.0    0.000    0.000    0.051    0.052
 pw_copy_from_array                 374 13.3    0.046    0.052    0.046    0.052
 rs_gather_matrices                  38 11.0    0.001    0.002    0.027    0.051
 pw_poisson_set                      39  9.9    0.000    0.000    0.045    0.050
 cp_fm_symm                          37  8.0    0.047    0.050    0.047    0.050
 cp_cfm_geeig                         1  7.0    0.000    0.000    0.049    0.050
 pw_copy_to_array                   302 12.8    0.039    0.049    0.039    0.049
 create_and_init_bs_env               1  6.0    0.000    0.000    0.046    0.046
 read_gw_input_parameters             1  8.0    0.000    0.000    0.046    0.046
 read_rirs_grid_opt                   1  9.0    0.045    0.046    0.045    0.046
 fft_wrap_pw1pw2_40                  76 11.5    0.001    0.002    0.034    0.045
 dbcsr_add_d                        931 10.0    0.000    0.001    0.042    0.044
 dbcsr_add_anytype                  931 11.0    0.007    0.013    0.041    0.044
 scf_post_calculation_gpw             1  4.0    0.000    0.000    0.042    0.042
 write_available_results              1  5.0    0.000    0.000    0.042    0.042
 write_mo_free_results                1  6.0    0.001    0.001    0.042    0.042
 pw_grid_sort                         4  8.0    0.027    0.028    0.039    0.041
 build_gram_jacobi_blas               2 10.0    0.020    0.033    0.026    0.041
 diagonalize_ks_matrix                1  7.0    0.000    0.000    0.040    0.040
 cp_fm_geeig_canon                    1  8.0    0.000    0.000    0.040    0.040
 pw_axpy                            375 10.3    0.038    0.040    0.038    0.040
 cp_fm_uplo_to_full                 102 10.0    0.022    0.040    0.022    0.040
 pw_grid_remap                        4  8.0    0.001    0.001    0.037    0.039
 mp_sum_im3                           5  9.2    0.036    0.038    0.036    0.038
 extract_grid_panel                 122 10.5    0.020    0.031    0.026    0.038
 mp_sum_dm                           38  7.9    0.020    0.036    0.020    0.036
 mp_isend_dm3                       772 12.5    0.026    0.035    0.026    0.035
 build_phi_on_sphere                  2 10.0    0.001    0.002    0.021    0.034
 evaluate_ao_on_points               90 11.0    0.021    0.034    0.021    0.034
 fill_fm_Sigma_c_Gamma_time           1 10.0    0.000    0.000    0.033    0.034
 cp_cfm_heevd                         1  8.0    0.000    0.000    0.031    0.032
 cp_cfm_heevd_base                    1  9.0    0.031    0.032    0.031    0.032
 compute_d_lp_dgemm                 311 11.0    0.016    0.031    0.016    0.031
 get_ddapc                           38 11.0    0.001    0.001    0.026    0.030
 dbcsr_mm_hostdrv_init           115005 12.8    0.018    0.030    0.018    0.030
 mp_bcast_i_src                     104  7.1    0.026    0.030    0.026    0.030
 compute_Z_lP_standard_dpotrf         2 10.0    0.020    0.029    0.020    0.029
 mask_mo_block_cfm                34344  5.0    0.018    0.028    0.018    0.028
 compute_V_MinvVsqrt                  1  9.0    0.000    0.000    0.027    0.028
 mixing_init                          1  6.0    0.026    0.027    0.028    0.028
 pw_zero                            186 11.4    0.019    0.026    0.019    0.026
 fft_wrap_pw1pw2_20                  76 11.5    0.001    0.001    0.019    0.026
 extract_masked_blocks              244 10.6    0.011    0.015    0.021    0.026
 rs_grid_zero                        79 13.8    0.024    0.025    0.024    0.025
 collect_used_col_blocks             92 10.7    0.000    0.001    0.016    0.025
 mp_sum_i                           408  9.9    0.014    0.024    0.014    0.024
 cp_fm_geeig                          1 10.0    0.000    0.000    0.024    0.024
 transfer_rs2pw_20                   38 10.0    0.006    0.008    0.021    0.024
 hadamard_product                    91 10.7    0.011    0.015    0.018    0.024
 dbcsr_get_global_col_map        115005  8.8    0.020    0.023    0.020    0.023
 dbcsr_get_global_row_map        115005  8.8    0.021    0.023    0.021    0.023
 modify_hartree_pot                  38 11.0    0.015    0.021    0.015    0.021
 qs_create_task_list                  1  6.0    0.000    0.000    0.012    0.021
 generate_qs_task_list                1  7.0    0.001    0.001    0.012    0.021
 hirshfeld_integration                1  7.0    0.007    0.016    0.020    0.020
 distribute_tasks                     1  8.0    0.000    0.000    0.011    0.020
 calculate_hirshfeld_normalizat       1  7.0    0.007    0.016    0.019    0.019
 load_balance_distributed             2  9.0    0.000    0.000    0.009    0.018
 build_grid_cache                     1  9.0    0.001    0.001    0.012    0.018
 transfer_pw2rs_20                   38 13.0    0.007    0.009    0.017    0.018
 cp_cfm_zscale                    22896  5.0    0.012    0.018    0.012    0.018
 initialize_sex_selfenergy            1  3.0    0.000    0.000    0.017    0.017
 rt_bse_ri_rs_ensure_W0_grid          1  4.0    0.000    0.000    0.017    0.017
 read_rirs_grid_file                  2 10.0    0.011    0.017    0.011    0.017
 get_current_loads                   12 10.0    0.000    0.000    0.008    0.017
 compute_load_list                    4 10.0    0.000    0.000    0.007    0.016
 topology_control                     1  2.0    0.000    0.000    0.016    0.016
 coordinate_control                   1  3.0    0.001    0.001    0.016    0.016
 cp_cfm_cholesky_decompose            2  8.0    0.015    0.016    0.015    0.016
 mp_bcast_b_src                      79  8.1    0.005    0.016    0.005    0.016
 mp_alltoall_l                       13 10.9    0.007    0.016    0.007    0.016
 coordinate_control_READ_COORDI       1  4.0    0.000    0.000    0.015    0.015
 read_coordinate_xyz                  1  5.0    0.000    0.000    0.015    0.015
 cp_ddapc_init                        1  6.0    0.000    0.000    0.013    0.014
 cp_ddapc_create                      1  7.0    0.000    0.000    0.013    0.014
 sort_shells                          4  9.0    0.012    0.013    0.012    0.013
 initialize_moments                   1  3.0    0.000    0.000    0.013    0.013
 parallel_gemm_cfm                   14  6.6    0.000    0.000    0.012    0.013
 parallel_gemm_cfm_cosma             14  7.6    0.012    0.013    0.012    0.013
 mp_maxloc_dv                      1507  1.0    0.012    0.012    0.012    0.012
 mp_mem_avail_per_rank_GB             4  9.8    0.001    0.001    0.010    0.011
 rs_scatter_matrices                 38  8.0    0.001    0.001    0.010    0.011
 mp_comm_split_type                   4 10.8    0.009    0.011    0.009    0.011
 dbcsr_make_images_dense            116 11.7    0.001    0.001    0.007    0.010
 initialize_hartree_potential         1  3.0    0.000    0.000    0.009    0.009
 rt_bse_ri_rs_ensure_V_grid           1  4.0    0.000    0.000    0.009    0.009
 mp_bcast_dv                         41 10.0    0.004    0.009    0.004    0.009
 check_for_restart_files              1  8.0    0.009    0.009    0.009    0.009
 compute_proj_mo_on_kind              1  7.0    0.000    0.000    0.009    0.009
 build_gram_jacobi_blas_dsyrk         2 11.0    0.006    0.009    0.006    0.009
 mp_max_d                           245  9.7    0.006    0.009    0.006    0.009
 mp_sum_im                           49  9.3    0.008    0.009    0.008    0.009
 dbcsr_make_dense_low               174 12.7    0.001    0.001    0.006    0.008
 delete_unnecessary_files             1  9.0    0.000    0.000    0.000    0.008
 pw_multiply_with                    38 10.0    0.007    0.008    0.007    0.008
 get_ddapc-charges                   38 12.0    0.001    0.001    0.008    0.008
 safe_delete                         60 10.0    0.000    0.008    0.000    0.008
 ewald_ddapc_pot                      1  8.0    0.004    0.008    0.008    0.008
 mp_max_i                           628  1.8    0.008    0.008    0.008    0.008
 create_tensors                       1  8.0    0.000    0.000    0.008    0.008
 make_dense_data                    174 13.7    0.003    0.005    0.005    0.008
 dbcsr_crop_matrix                  111 11.0    0.000    0.000    0.007    0.007
 dbcsr_copy_submatrix               111 12.0    0.001    0.001    0.007    0.007
 self_consistency_check              37  6.0    0.000    0.000    0.005    0.007
 transform_ao_to_mo_covariant_f       6  4.0    0.000    0.000    0.007    0.007
 cp_sm_mix                           37  7.0    0.000    0.001    0.005    0.007
 initialize_rtbse_env                 1  3.0    0.006    0.006    0.007    0.007
 compute_Z_lP_standard_dpotrs         2 10.0    0.004    0.006    0.004    0.006
 dbt_distribution_new_expert         10 11.5    0.000    0.000    0.006    0.006
 Fourier_transform_w_to_t            30  9.0    0.000    0.000    0.005    0.006
 mp_comm_size                     18201  4.5    0.004    0.006    0.004    0.006
 cp_fm_scale_and_add                935  9.9    0.005    0.006    0.005    0.006
 mp_rank_compare                    676 14.1    0.005    0.006    0.005    0.006
 pw_grid_assign                       4  8.0    0.004    0.005    0.005    0.006
 build_b_vector                      38 13.0    0.004    0.005    0.004    0.005
 dbt_tas_distribution_new            10 12.5    0.001    0.001    0.005    0.005
 ddapc_eval_AmI                       1  8.0    0.001    0.001    0.004    0.005
 write_mo_set_to_restart             37  6.0    0.000    0.003    0.003    0.005
 calculate_first_density_matrix       1  6.0    0.000    0.000    0.002    0.005
 mp_bcast_av                        754  1.0    0.003    0.005    0.003    0.005
 mp_comm_rank                     18201  4.5    0.003    0.005    0.003    0.005
 dbcsr_filter_anytype               199 10.0    0.001    0.001    0.004    0.004
 analyt_conti_and_print               1 10.0    0.000    0.004    0.001    0.004
 fm_write                             1  9.0    0.000    0.001    0.003    0.004
 apply_delta_pulse_MO                 1  3.0    0.000    0.000    0.004    0.004
 create_product_matrix              334 10.6    0.001    0.001    0.004    0.004
 propagate_density                    1  4.0    0.000    0.000    0.004    0.004
 bch_propagate                        1  5.0    0.000    0.000    0.004    0.004
 create_2c_t                          1  9.0    0.000    0.000    0.004    0.004
 dbt_tas_create_split                 6 13.2    0.000    0.000    0.004    0.004
 dbt_tas_create_split_rows_or_c       6 14.2    0.000    0.000    0.004    0.004
 create_2c_tensor                     3 10.0    0.000    0.000    0.004    0.004
 create_3c_t                          2  9.0    0.000    0.000    0.004    0.004
 pw_scale                           149 10.8    0.003    0.004    0.003    0.004
 cp_fm_gemm                           3  9.0    0.003    0.004    0.003    0.004
 mp_irecv_dm3                       772 12.5    0.002    0.004    0.002    0.004
 cp_cfm_triangular_multiply           3  8.0    0.003    0.004    0.003    0.004
 xc_pw_smooth                        37 11.0    0.000    0.000    0.003    0.003
 dbcsr_dot                           75  9.0    0.001    0.001    0.003    0.003
 allocate_and_fill_fm_ks_fm_s         1  7.0    0.000    0.000    0.003    0.003
 mp_min_d                             5 10.0    0.002    0.003    0.002    0.003
 get_fft_scratch                    677 14.1    0.003    0.003    0.003    0.003
 build_core_hamiltonian_matrix        1  5.0    0.000    0.000    0.003    0.003
 evaluate_core_matrix_traces         37  7.0    0.000    0.000    0.003    0.003
 calculate_ptrace_kp                 74  8.0    0.000    0.000    0.003    0.003
 atomic_basis_at_grid_point           1  8.0    0.000    0.000    0.003    0.003
 write_mo_set_low                     2  7.0    0.000    0.000    0.003    0.003
 grid_free_task_list                  1  2.0    0.003    0.003    0.003    0.003
 cp_fm_triangular_multiply            3 11.0    0.003    0.003    0.003    0.003
 print_matrix_occupation              3  9.0    0.000    0.000    0.002    0.003
 pw_grid_distribute                   4  8.0    0.001    0.001    0.003    0.003
 fill_phi_for_atom                    2  9.0    0.000    0.000    0.001    0.003
 check_gw_input                       1  9.0    0.000    0.000    0.001    0.003
 resolve_memory_per_proc              1 10.0    0.000    0.000    0.001    0.003
 create_3c_tensor                     2 10.0    0.000    0.000    0.002    0.003
 pw_pool_create_pw                 1179 10.8    0.001    0.002    0.002    0.002
 mp_comm_split                       41 10.0    0.002    0.002    0.002    0.002
 cp_fm_triangular_invert              1 11.0    0.002    0.002    0.002    0.002
 check_positive_definite_overla       1  7.0    0.000    0.000    0.002    0.002
 optimize_load_list                   2 10.0    0.000    0.000    0.002    0.002
 cp_fm_copy_general                   4  8.2    0.000    0.000    0.001    0.002
 mp_bcast_i                           6 15.2    0.002    0.002    0.002    0.002
 ab_contract                       8468  9.2    0.002    0.002    0.002    0.002
 mp_bcast_i3                          2 11.0    0.002    0.002    0.002    0.002
 mp_isendrecv_dv                   2356 14.0    0.001    0.002    0.001    0.002
 external_control                    37  6.0    0.000    0.000    0.002    0.002
 mp_sum_lv                          148  2.2    0.001    0.002    0.001    0.002
 mp_comm_split_direct                 8 13.6    0.002    0.002    0.002    0.002
 cp_fm_to_fm_matrix                 197 10.5    0.001    0.002    0.001    0.002
 create_local_tasks                   1  9.0    0.000    0.000    0.001    0.002
 determine_active_mo_window           1  3.0    0.002    0.002    0.002    0.002
 mp_alltoall_l11v                     1 10.0    0.001    0.002    0.001    0.002
 cp_cfm_triangular_invert             1  8.0    0.002    0.002    0.002    0.002
 mp_sum_b                           180 10.9    0.002    0.002    0.002    0.002
 calculate_atomic_block_dm            1  7.0    0.000    0.000    0.001    0.002
 dbt_create_new                       5 11.0    0.000    0.000    0.002    0.002
 cp_fm_start_copy_general             4  9.2    0.000    0.000    0.001    0.002
 ddapc_eval_gfunc                     1  8.0    0.001    0.002    0.001    0.002
 mp_allgather_l                      13 10.9    0.001    0.002    0.001    0.002
 compute_max_radius                   1  6.0    0.001    0.002    0.001    0.002
 build_overlap_matrix_low             1  6.0    0.001    0.001    0.001    0.001
 build_2c_coulomb_matrix_kp           1 10.0    0.000    0.000    0.001    0.001
 lattice_sum                          1 11.0    0.000    0.000    0.001    0.001
 build_A_matrix                       1  9.0    0.001    0.001    0.001    0.001
 build_local_moment_matrix            2  4.0    0.001    0.001    0.001    0.001
 pw_poisson_rebuild                  38 10.0    0.001    0.001    0.001    0.001
 dbt_pgrid_create_expert             13 11.9    0.000    0.000    0.001    0.001
 mp_cart_get                        718 14.1    0.001    0.001    0.001    0.001
 pw_pool_give_back_pw              1321 10.8    0.001    0.001    0.001    0.001
 create_fm_W_MIC_time                 1  9.0    0.000    0.000    0.001    0.001
 scf_c_write_parameters               1  3.0    0.000    0.001    0.000    0.001
 compute_v_transl                     1 12.0    0.001    0.001    0.001    0.001
 populate_C_active                    1  3.0    0.000    0.000    0.001    0.001
 cp_fm_to_fm_submat_general           1  4.0    0.001    0.001    0.001    0.001
 mulliken_population_analysis         1  7.0    0.000    0.000    0.001    0.001
 init_cube_info                       4  6.0    0.001    0.001    0.001    0.001
 qs_scf_write_mos                    38  6.0    0.001    0.001    0.001    0.001
 distribution_3d_create               1 10.0    0.000    0.000    0.001    0.001
 build_core_ppl                       1  6.0    0.001    0.001    0.001    0.001
 mp_bcast_iv_src                     26  7.1    0.001    0.001    0.001    0.001
 mp_bcast_iv                        159  2.8    0.001    0.001    0.001    0.001
 rs_grid_create_descriptor            4  6.0    0.000    0.000    0.001    0.001
 store_Z_lP_columns                   2 10.0    0.000    0.001    0.000    0.001
 reserve_blocks_within_radius         1  5.0    0.000    0.001    0.000    0.001
 distribution_2d_create               2 11.0    0.000    0.001    0.001    0.001
 calculate_atom                       2  8.0    0.000    0.000    0.000    0.001
 calculate_atom_restricted            2  9.0    0.000    0.001    0.000    0.001
 pw_create_c1d                      685 11.6    0.000    0.001    0.000    0.001
 fm_add_on_diag                      60 10.0    0.000    0.001    0.000    0.001
 multi_fft                            1  4.0    0.001    0.001    0.001    0.001
 write_dft_control                    1  3.0    0.000    0.001    0.000    0.001
 mp_allgather_i                      10 10.4    0.000    0.001    0.000    0.001
 build_core_ppnl                      1  6.0    0.000    0.001    0.000    0.001
 print_ri_rs_memory_estimate          1  8.0    0.000    0.000    0.001    0.001
 pw_create_r3d                      679 11.7    0.000    0.001    0.000    0.001
 mp_comm_dup                         10 11.9    0.000    0.000    0.000    0.000
 cfm_ikp_from_fm_Gamma                3  7.3    0.000    0.000    0.000    0.000
 dbcsr_make_dists_dense              58 10.7    0.000    0.000    0.000    0.000
 cp_fm_finish_copy_general            4  9.2    0.000    0.000    0.000    0.000
 bs_env_release                       1  2.0    0.000    0.000    0.000    0.000
 qs_scf_loop_print                   37  6.0    0.000    0.000    0.000    0.000
 setup_kpoints_DOS_large_cell_G       1  7.0    0.000    0.000    0.000    0.000
 allocate_matrices                    1  9.0    0.000    0.000    0.000    0.000
 kpoint_init_cell_index_simple        1  8.0    0.000    0.000    0.000    0.000
 kpoint_init_cell_index               1  9.0    0.000    0.000    0.000    0.000
 fft3d_s                              1  2.0    0.000    0.000    0.000    0.000
 mp_max_iv                            1 10.0    0.000    0.000    0.000    0.000
 connectivity_control                 1  3.0    0.000    0.000    0.000    0.000
 build_kinetic_matrix_low             1  6.0    0.000    0.000    0.000    0.000
 classify_z_lp_atoms                  1 10.0    0.000    0.000    0.000    0.000
 cp_dbcsr_alloc_block_from_nbl       14  7.1    0.000    0.000    0.000    0.000
 cp_fm_set_all                       24  5.3    0.000    0.000    0.000    0.000
 rs_grid_create                       6  6.7    0.000    0.000    0.000    0.000
 create_mat_munu                      1 10.0    0.000    0.000    0.000    0.000
 mp_sum_partial_im                    2 11.0    0.000    0.000    0.000    0.000
 offload_create_buffer                8  7.8    0.000    0.000    0.000    0.000
 init_interaction_radii               3  7.3    0.000    0.000    0.000    0.000
 topology_generate_bond               1  4.0    0.000    0.000    0.000    0.000
 mp_max_r                             1  2.0    0.000    0.000    0.000    0.000
 dbcsr_index_compact                152 11.4    0.000    0.000    0.000    0.000
 build_qs_neighbor_lists              1  5.0    0.000    0.000    0.000    0.000
 dbcsr_index_prune_deleted          202 12.7    0.000    0.000    0.000    0.000
 qs_efield_local_operator            38  9.0    0.000    0.000    0.000    0.000
 continuation_pade                   15 11.0    0.000    0.000    0.000    0.000
 set_parallelization_parameters       1  9.0    0.000    0.000    0.000    0.000
 dbt_destroy                          5  3.0    0.000    0.000    0.000    0.000
 set_mo_occupation_2                 37  7.0    0.000    0.000    0.000    0.000
 grid_create_task_list                1  8.0    0.000    0.000    0.000    0.000
 cp_cfm_norm                          6  5.7    0.000    0.000    0.000    0.000
 dbcsr_copy_into_existing             1  7.0    0.000    0.000    0.000    0.000
 get_parameters_from_qs_env           1  7.0    0.000    0.000    0.000    0.000
 write_qs_kind_set                    1  3.0    0.000    0.000    0.000    0.000
 get_sigma_c_newton_pade             15 12.0    0.000    0.000    0.000    0.000
 pw_grid_allocate                     4  8.0    0.000    0.000    0.000    0.000
 time_to_freq                         1 10.0    0.000    0.000    0.000    0.000
 mp_mem_used_per_rank_GB              2  9.5    0.000    0.000    0.000    0.000
 mpools_rebuild_fm_pools              1  4.0    0.000    0.000    0.000    0.000
 load_balance_replicated              1  9.0    0.000    0.000    0.000    0.000
 topology_generate_bond_3             1  5.0    0.000    0.000    0.000    0.000
 build_fist_neighbor_lists            1  6.0    0.000    0.000    0.000    0.000
 dbcsr_frobenius_norm                 1  5.0    0.000    0.000    0.000    0.000
 build_neighbor_lists                 1  7.0    0.000    0.000    0.000    0.000
 lattice_sum_R_to_k                   8 12.0    0.000    0.000    0.000    0.000
 print_Z_lP_progress                  3 10.0    0.000    0.000    0.000    0.000
 qs_scf_ensure_mos                    1  4.0    0.000    0.000    0.000    0.000
 cp_fm_to_fm_columns                  3  7.0    0.000    0.000    0.000    0.000
 de_init_bs_env                       1  8.0    0.000    0.000    0.000    0.000
 calculate_atom_vxc_lda              11 10.0    0.000    0.000    0.000    0.000
 set_mo_occupation_1                 38  7.9    0.000    0.000    0.000    0.000
 scale_rows_by_diag                   4 10.0    0.000    0.000    0.000    0.000
 qs_env_rebuild_rho                   1  6.0    0.000    0.000    0.000    0.000
 atom_int_setup                       2  8.0    0.000    0.000    0.000    0.000
 print_header_and_input_paramet       1  8.0    0.000    0.000    0.000    0.000
 qs_rho_rebuild                       1  7.0    0.000    0.000    0.000    0.000
 allocate_blocks_v_L                  2 12.0    0.000    0.000    0.000    0.000
 write_qs_particle_coordinates        1  3.0    0.000    0.000    0.000    0.000
 build_3c_neighbor_lists              1 10.0    0.000    0.000    0.000    0.000
 qs_scf_ensure_work_matrices          1  4.0    0.000    0.000    0.000    0.000
 write_orbpop                         1  8.0    0.000    0.000    0.000    0.000
 distribution_3d_destroy              1  9.0    0.000    0.000    0.000    0.000
 init_qs_kind_set                     1  3.0    0.000    0.000    0.000    0.000
 init_qs_kind                         2  4.0    0.000    0.000    0.000    0.000
 build_neighbor_lists_RPA_2c_nl       4  8.2    0.000    0.000    0.000    0.000
 topology_connectivity_pack           1  3.0    0.000    0.000    0.000    0.000
 wfs_update                           1  4.0    0.000    0.000    0.000    0.000
 allocate_blocks_v_kp                 1 12.0    0.000    0.000    0.000    0.000
 mp_sum_root_iv                       2 11.0    0.000    0.000    0.000    0.000
 distribute_molecules_2d              2  7.5    0.000    0.000    0.000    0.000
 dbcsr_verify_matrix                 37  9.0    0.000    0.000    0.000    0.000
 init_orb_basis_set                   4  5.0    0.000    0.000    0.000    0.000
 restraint_control                    1  3.0    0.000    0.000    0.000    0.000
 build_neighbor_lists_sac_ppl         1  6.0    0.000    0.000    0.000    0.000
 print_gw_rirs_input                  1  9.0    0.000    0.000    0.000    0.000
 dbt_distribution_destroy            10 11.5    0.000    0.000    0.000    0.000
 dbt_tas_create_new                   5 12.0    0.000    0.000    0.000    0.000
 write_particle_distances             1  3.0    0.000    0.000    0.000    0.000
 build_neighbor_lists_sap_ppnl        1  6.0    0.000    0.000    0.000    0.000
 allocate_tmp                         1 11.0    0.000    0.000    0.000    0.000
 calculate_ecore_overlap              1  5.0    0.000    0.000    0.000    0.000
 write_mo_dependent_results           1  6.0    0.000    0.000    0.000    0.000
 get_n_ao_in_sphere                  88 10.0    0.000    0.000    0.000    0.000
 topology_generate_bond_4             1  5.0    0.000    0.000    0.000    0.000
 atom2d_build                         8  9.0    0.000    0.000    0.000    0.000
 initialize_maximum_timestep          1  3.0    0.000    0.000    0.000    0.000
 check_for_derivatives               37 11.0    0.000    0.000    0.000    0.000
 check_diag                          41  8.0    0.000    0.000    0.000    0.000
 initialize_singleparticle_hami       1  3.0    0.000    0.000    0.000    0.000
 print_atomic_charges                38 13.0    0.000    0.000    0.000    0.000
 cp_ddapc_apply_RF                   38 10.0    0.000    0.000    0.000    0.000
 distribute_molecules_1d              2  7.0    0.000    0.000    0.000    0.000
 qs_ks_did_change                    39  6.0    0.000    0.000    0.000    0.000
 build_neighbor_lists_sab_orb         1  6.0    0.000    0.000    0.000    0.000
 mixing_allocate                      1  4.0    0.000    0.000    0.000    0.000
 build_neighbor_lists_GW_3c_nl_       1 11.0    0.000    0.000    0.000    0.000
 init_cphi_and_sphi                   4  6.0    0.000    0.000    0.000    0.000
 atom_ppint_setup                     2  8.0    0.000    0.000    0.000    0.000
 get_all_VBM_CBM_bandgaps             1 10.0    0.000    0.000    0.000    0.000
 mp_max_lv                            4  8.0    0.000    0.000    0.000    0.000
 cp_cfm_to_cfm_columns                1  8.0    0.000    0.000    0.000    0.000
 scf_c_read_parameters                1  3.0    0.000    0.000    0.000    0.000
 create_destination_list              2 10.0    0.000    0.000    0.000    0.000
 mp_min_lv                            4  8.0    0.000    0.000    0.000    0.000
 qs_efield_berry_phase               38  9.0    0.000    0.000    0.000    0.000
 qs_scf_initial_info                  1  5.0    0.000    0.000    0.000    0.000
 mp_min_i                             4  6.0    0.000    0.000    0.000    0.000
 reallocate_ft_traces                 1  4.0    0.000    0.000    0.000    0.000
 connectivity_control_check_ele       1  4.0    0.000    0.000    0.000    0.000
 check_scf_gw_level_ordering          1 11.0    0.000    0.000    0.000    0.000
 cp_result_value_p_reallocate         4  7.8    0.000    0.000    0.000    0.000
 scf_env_cleanup                      1  4.0    0.000    0.000    0.000    0.000
 mp_sum_lm3                           1  2.0    0.000    0.000    0.000    0.000
 qs_scf_post_charges                  1  5.0    0.000    0.000    0.000    0.000
 create_grid_atom                     2  8.0    0.000    0.000    0.000    0.000
 write_band_edges                     3  7.0    0.000    0.000    0.000    0.000
 mp_cart_coords                     128  9.0    0.000    0.000    0.000    0.000
 build_neighbor_lists_sab_core        1  6.0    0.000    0.000    0.000    0.000
 build_neighbor_lists_sab_orb_s       1 11.0    0.000    0.000    0.000    0.000
 build_neighbor_lists_GW_3c_nl_       1 11.0    0.000    0.000    0.000    0.000
 set_blocks_to_matrix_v_kp            1 12.0    0.000    0.000    0.000    0.000
 write_qs_control                     1  3.0    0.000    0.000    0.000    0.000
 topology_coordinate_pack             1  3.0    0.000    0.000    0.000    0.000
 mp_bcast_im                          8 10.2    0.000    0.000    0.000    0.000
 qs_scf_print_scf_summary             1  6.0    0.000    0.000    0.000    0.000
 read_qs_section                      1  3.0    0.000    0.000    0.000    0.000
 mp_bcast_av_src                      1  7.0    0.000    0.000    0.000    0.000
 read_bandstructure_input_param       1  7.0    0.000    0.000    0.000    0.000
 xc_libxc_check_functional            2  4.0    0.000    0.000    0.000    0.000
 build_neighbor_lists_sab_all         1  6.0    0.000    0.000    0.000    0.000
 make_basic_distribution              2  8.5    0.000    0.000    0.000    0.000
 external_c_potential                 1  5.0    0.000    0.000    0.000    0.000
 balance_global_list                  2 11.0    0.000    0.000    0.000    0.000
 read_tddfpt2_control                 1  3.0    0.000    0.000    0.000    0.000
 check_generate_mol                   1  6.0    0.000    0.000    0.000    0.000
 precompute_ri_rs_radii               1  8.0    0.000    0.000    0.000    0.000
 topology_generate_molecule           1  4.0    0.000    0.000    0.000    0.000
 mp_dims_create                       3 11.0    0.000    0.000    0.000    0.000
 topology_generate_bond_2             1  5.0    0.000    0.000    0.000    0.000
 deallocate_blocks_v_L                2 12.0    0.000    0.000    0.000    0.000
 get_basis_offsets                    1  9.0    0.000    0.000    0.000    0.000
 scf_env_release                      1  2.0    0.000    0.000    0.000    0.000
 set_RI_basis_function_indices        1  9.0    0.000    0.000    0.000    0.000
 read_smeagol_control                 1  3.0    0.000    0.000    0.000    0.000
 setup_AO_and_RI_basis_set            1  8.0    0.000    0.000    0.000    0.000
 offload_free_buffer                  8  3.5    0.000    0.000    0.000    0.000
 scf_c_create                         1  3.0    0.000    0.000    0.000    0.000
 resolve_grid_panels                  4  9.2    0.000    0.000    0.000    0.000
 spatial_atom_order                   1  9.0    0.000    0.000    0.000    0.000
 topology_connectivity_pack_10        1  4.0    0.000    0.000    0.000    0.000
 init_scf_loop                        1  5.0    0.000    0.000    0.000    0.000
 mp_max_rv                            1  2.0    0.000    0.000    0.000    0.000
 mp_min_rv                            1  2.0    0.000    0.000    0.000    0.000
 get_factor_and_xyz_min_max           1 12.0    0.000    0.000    0.000    0.000
 sort_neighbor_lists                  1  7.0    0.000    0.000    0.000    0.000
 scf_env_create                       1  4.0    0.000    0.000    0.000    0.000
 ps_implicit_release                  2  4.0    0.000    0.000    0.000    0.000
 mp_sum_r                             1  2.0    0.000    0.000    0.000    0.000
 wfi_extrapolate                      1  6.0    0.000    0.000    0.000    0.000
 write_molecule_kind_set              1  3.0    0.000    0.000    0.000    0.000
 fix_atom_control                     1  3.0    0.000    0.000    0.000    0.000
 diag                                 5  9.0    0.000    0.000    0.000    0.000
 get_rpa_minimax_coeff_larger_g       1 10.0    0.000    0.000    0.000    0.000
 dump_info_core_hamiltonian           1  6.0    0.000    0.000    0.000    0.000
 qs_scf_post_kubo_transport           1  7.0    0.000    0.000    0.000    0.000
 topology_generate_bond_1             1  5.0    0.000    0.000    0.000    0.000
 topology_constraint_pack             1  3.0    0.000    0.000    0.000    0.000
 contract2                           15  9.0    0.000    0.000    0.000    0.000
 topology_generate_onfo               1  4.0    0.000    0.000    0.000    0.000
 lpt_assign_atoms                     1 10.0    0.000    0.000    0.000    0.000
 allocate_GW_eigenvalues              1  8.0    0.000    0.000    0.000    0.000
 check_cp2k_input                     1  2.0    0.000    0.000    0.000    0.000
 mp_sum_rv                            1  2.0    0.000    0.000    0.000    0.000
 topology_connectivity_pack_12        1  4.0    0.000    0.000    0.000    0.000
 topology_set_atm_mass                1  4.0    0.000    0.000    0.000    0.000
 topology_connectivity_pack_4         1  4.0    0.000    0.000    0.000    0.000
 topology_connectivity_pack_3         1  4.0    0.000    0.000    0.000    0.000
 topology_connectivity_pack_6         1  4.0    0.000    0.000    0.000    0.000
 topology_connectivity_pack_2         1  4.0    0.000    0.000    0.000    0.000
 cp_result_value_release             10  6.3    0.000    0.000    0.000    0.000
 compute_xkp                          3  9.3    0.000    0.000    0.000    0.000
 topology_connectivity_pack_5         1  4.0    0.000    0.000    0.000    0.000
 cp_fm_cleanup_copy_general           4  9.2    0.000    0.000    0.000    0.000
 print_header                         1  7.0    0.000    0.000    0.000    0.000
 kpoint_initialize                    1  2.0    0.000    0.000    0.000    0.000
 sg_erf                               5  9.0    0.000    0.000    0.000    0.000
 qs_scf_post_ps_implicit              1  7.0    0.000    0.000    0.000    0.000
 read_topology_section                1  3.0    0.000    0.000    0.000    0.000
 qs_scf_post_transport                1  7.0    0.000    0.000    0.000    0.000
 init_evGW0                           1  9.0    0.000    0.000    0.000    0.000
 resp_fit                             1  6.0    0.000    0.000    0.000    0.000
 initialize_density_matrix            1  3.0    0.000    0.000    0.000    0.000
 setup_kpoints_chi_eps_W              1  9.0    0.000    0.000    0.000    0.000
 cp_result_value_copy                 6  8.5    0.000    0.000    0.000    0.000
 calculate_ecore_self                 1  5.0    0.000    0.000    0.000    0.000
 contract2add                        10  9.0    0.000    0.000    0.000    0.000
 set_heuristic_parameters             2  7.5    0.000    0.000    0.000    0.000
 print_sphere_cutoff_table            1 10.0    0.000    0.000    0.000    0.000
 init_harris_env                      1  3.0    0.000    0.000    0.000    0.000
 cp_result_release                    1  2.0    0.000    0.000    0.000    0.000
 topology_generate_bond_6             1  5.0    0.000    0.000    0.000    0.000
 read_mgrid_section                   1  3.0    0.000    0.000    0.000    0.000
 topology_connectivity_pack_14        1  4.0    0.000    0.000    0.000    0.000
 get_exp_minimax_coeff_gw             1 10.0    0.000    0.000    0.000    0.000
 topology_molecules_check             1  4.0    0.000    0.000    0.000    0.000
 cp_result_value_create              10  8.6    0.000    0.000    0.000    0.000
 read_rirs_input                      1  9.0    0.000    0.000    0.000    0.000
 ec_env_release                       1  2.0    0.000    0.000    0.000    0.000
 metadyn_read                         1  2.0    0.000    0.000    0.000    0.000
 topology_connectivity_pack_7         1  4.0    0.000    0.000    0.000    0.000
 topology_connectivity_pack_13        1  4.0    0.000    0.000    0.000    0.000
 grid_create_basis_set                2  8.0    0.000    0.000    0.000    0.000
 topology_connectivity_pack_11        1  4.0    0.000    0.000    0.000    0.000
 qs_scf_post_elf                      1  5.0    0.000    0.000    0.000    0.000
 deallocate_blocks_v_kp               1 12.0    0.000    0.000    0.000    0.000
 linres_calculation_low               1  5.0    0.000    0.000    0.000    0.000
 write_symmetry                       1  3.0    0.000    0.000    0.000    0.000
 topology_connectivity_pack_9         1  4.0    0.000    0.000    0.000    0.000
 transport_current                    1  8.0    0.000    0.000    0.000    0.000
 wfi_create                           1  3.0    0.000    0.000    0.000    0.000
 atom2d_cleanup                       8  9.0    0.000    0.000    0.000    0.000
 create_local_fixd_list               1  4.0    0.000    0.000    0.000    0.000
 grid_free_basis_set                  2  2.0    0.000    0.000    0.000    0.000
 print_cutoff_radius_input            4 10.0    0.000    0.000    0.000    0.000
 topology_coordinate_pack_7a          1  4.0    0.000    0.000    0.000    0.000
 topology_constraint_pack_1           1  4.0    0.000    0.000    0.000    0.000
 correct_obvious_fitting_fails        1 11.0    0.000    0.000    0.000    0.000
 cp_fm_scale                          2  6.5    0.000    0.000    0.000    0.000
 get_i_j_atoms                        2 10.0    0.000    0.000    0.000    0.000
 mp_isend_im2                         8 10.2    0.000    0.000    0.000    0.000
 read_evgw0_input                     1  9.0    0.000    0.000    0.000    0.000
 write_structure_data                 1  3.0    0.000    0.000    0.000    0.000
 topology_coordinate_pack_1           1  4.0    0.000    0.000    0.000    0.000
 topology_generate_molecule_PAR       1  5.0    0.000    0.000    0.000    0.000
 get_VBM_CBM_bandgaps                 3 11.0    0.000    0.000    0.000    0.000
 deallocate_tmp                       1 11.0    0.000    0.000    0.000    0.000
 topology_coordinate_pack_11          1  4.0    0.000    0.000    0.000    0.000
 cp_result_value_init                 4  7.8    0.000    0.000    0.000    0.000
 topology_coordinate_pack_5           1  4.0    0.000    0.000    0.000    0.000
 write_ks_matrix_csr                  1  7.0    0.000    0.000    0.000    0.000
 topology_connectivity_pack_1         1  4.0    0.000    0.000    0.000    0.000
 allocate_qs_energy                   1  3.0    0.000    0.000    0.000    0.000
 qs_scf_post_efg                      1  5.0    0.000    0.000    0.000    0.000
 fist_neighbor_init                   1  8.0    0.000    0.000    0.000    0.000
 qs_scf_post_xray                     1  5.0    0.000    0.000    0.000    0.000
 write_gto_basis_sets                 1  3.0    0.000    0.000    0.000    0.000
 write_s_matrix_csr                   1  7.0    0.000    0.000    0.000    0.000
 qs_scf_post_local_energy             1  7.0    0.000    0.000    0.000    0.000
 qs_scf_post_epr                      1  5.0    0.000    0.000    0.000    0.000
 qs_scf_post_moments                  1  5.0    0.000    0.000    0.000    0.000
 write_p_matrix_csr                   1  7.0    0.000    0.000    0.000    0.000
 write_hcore_matrix_csr               1  7.0    0.000    0.000    0.000    0.000
 write_adjacency_matrix               1  7.0    0.000    0.000    0.000    0.000
 write_dm_binary_restart              1  7.0    0.000    0.000    0.000    0.000
 mp_irecv_im2                         8 10.2    0.000    0.000    0.000    0.000
 read_binary_coordinates              1  3.0    0.000    0.000    0.000    0.000
 qs_scf_post_molopt                   1  5.0    0.000    0.000    0.000    0.000
 qs_scf_post_local_stress             1  7.0    0.000    0.000    0.000    0.000
 topology_constraint_pack_5           1  4.0    0.000    0.000    0.000    0.000
 square_mesh                          2 11.0    0.000    0.000    0.000    0.000
 plan_grid_panels                     1 10.0    0.000    0.000    0.000    0.000
 topology_constraint_pack_6           1  4.0    0.000    0.000    0.000    0.000
 topology_muc                         1  4.0    0.000    0.000    0.000    0.000
 qs_scf_post_et                       1  5.0    0.000    0.000    0.000    0.000
 wfn_mix                              1  5.0    0.000    0.000    0.000    0.000
 write_mos_molden                     1  7.0    0.000    0.000    0.000    0.000
 handle_ext_restart                   1  3.0    0.000    0.000    0.000    0.000
 calculate_ecore_efield               1  5.0    0.000    0.000    0.000    0.000
 read_auto_ri_input                   1  9.0    0.000    0.000    0.000    0.000
 topology_coordinate_pack_6           1  4.0    0.000    0.000    0.000    0.000
 topology_coordinate_pack_89          1  4.0    0.000    0.000    0.000    0.000
 tddfpt2_control_release              2  2.0    0.000    0.000    0.000    0.000
 topology_generate_bend               1  4.0    0.000    0.000    0.000    0.000
 reset_and_clean_bs_env               1  9.0    0.000    0.000    0.000    0.000
 topology_connectivity_pack_14_       1  4.0    0.000    0.000    0.000    0.000
 add_external_potential               1  3.0    0.000    0.000    0.000    0.000
 auto_ri_release                      1  3.0    0.000    0.000    0.000    0.000
 atom_relint_setup                    2  8.0    0.000    0.000    0.000    0.000
 topology_connectivity_pack_13_       1  4.0    0.000    0.000    0.000    0.000
 wannier90_interface                  1  5.0    0.000    0.000    0.000    0.000
 topology_connectivity_pack_11_       1  4.0    0.000    0.000    0.000    0.000
 topology_constraint_pack_7           1  4.0    0.000    0.000    0.000    0.000
 topology_connectivity_pack_12_       1  4.0    0.000    0.000    0.000    0.000
 fp_env_read                          1  2.0    0.000    0.000    0.000    0.000
 init_ec_env                          1  2.0    0.000    0.000    0.000    0.000
 compute_matrix_w                     1  4.0    0.000    0.000    0.000    0.000
 rt_bse_ri_rs_ensure_grid             2  5.0    0.000    0.000    0.000    0.000
 smeagol_control_release              1  2.0    0.000    0.000    0.000    0.000
 tddfpt2_control_create               2  3.0    0.000    0.000    0.000    0.000
 check_qs_kind_set                    1  3.0    0.000    0.000    0.000    0.000
 pw_env_create                        1  5.0    0.000    0.000    0.000    0.000
 external_e_potential                 1  5.0    0.000    0.000    0.000    0.000
 fp_env_write                         1  2.0    0.000    0.000    0.000    0.000
 topology_generate_bond_7             1  5.0    0.000    0.000    0.000    0.000
 rescale_forces                       1  3.0    0.000    0.000    0.000    0.000
 topology_coordinate_pack_7b          1  4.0    0.000    0.000    0.000    0.000
 topology_generate_dihe               1  4.0    0.000    0.000    0.000    0.000
 topology_coordinate_pack_3           1  4.0    0.000    0.000    0.000    0.000
 cleanup_scf_loop                     1  6.0    0.000    0.000    0.000    0.000
 topology_coordinate_pack_4           1  4.0    0.000    0.000    0.000    0.000
 excited_state_energy                 1  4.0    0.000    0.000    0.000    0.000
 topology_coordinate_pack_2           1  4.0    0.000    0.000    0.000    0.000
 external_read_density                1  5.0    0.000    0.000    0.000    0.000
 topology_generate_ub                 1  4.0    0.000    0.000    0.000    0.000
 topology_constraint_pack_2           1  4.0    0.000    0.000    0.000    0.000
 topology_connectivity_pack_1.1       1  4.0    0.000    0.000    0.000    0.000
 topology_constraint_pack_3           1  4.0    0.000    0.000    0.000    0.000
 smeagol_control_create               1  3.0    0.000    0.000    0.000    0.000
 topology_connectivity_pack_8         1  4.0    0.000    0.000    0.000    0.000
 topology_generate_impr               1  4.0    0.000    0.000    0.000    0.000
 cp_result_create                     1  2.0    0.000    0.000    0.000    0.000
 topology_coordinate_pack_10          1  4.0    0.000    0.000    0.000    0.000
 topology_constraint_pack_4           1  4.0    0.000    0.000    0.000    0.000
 -------------------------------------------------------------------------------

 The number of warnings for this run is : 3
 
 -------------------------------------------------------------------------------
  **** **** ******  **  PROGRAM ENDED AT                 2026-09-30 15:58:06.222
 ***** ** ***  *** **   PROGRAM RAN ON                                    cn1336
 **    ****   ******    PROGRAM RAN BY                                  metdyn07
 ***** **    ** ** **   PROGRAM PROCESS ID                               1247252
  **** **  *******  **  PROGRAM STOPPED IN /scratch/hpc-prf-metdyn/metdyn07_Rita
                                           j/project-max-rtbse/g0w0_rtbse_compar
                                           ison_tuned/2/rirs_opt/gterm
