584

H              2.44067137            -2.50689740             0.00000000
H             -2.44067137            -2.50689740             0.00000000
H              0.00000000            -2.19565187            -0.77304449
H              0.00000000            -2.19565187             0.77304449
C             -0.00000000            -1.42260738             0.00000000
C              2.44067137            -1.41364740            -0.00000000
C             -2.44067137            -1.41364740             0.00000000
H             -4.59680947            -1.19894451             0.00000000
H              4.59680947            -1.19894451             0.00000000
C             -1.22352318            -0.70942258             0.00000000
C              1.22352318            -0.70942258            -0.00000000
C              3.63501698            -0.67917712            -0.00000000
C             -3.63501698            -0.67917712             0.00000000
C             -3.63501698             0.67917712            -0.00000000
C              3.63501698             0.67917712             0.00000000
C             -1.22352318             0.70942258            -0.00000000
C              1.22352318             0.70942258             0.00000000
H              4.59680947             1.19894451            -0.00000000
H             -4.59680947             1.19894451            -0.00000000
C             -2.44067137             1.41364740            -0.00000000
C              2.44067137             1.41364740             0.00000000
C              0.00000000             1.42260738             0.00000000
C              0.00000000             2.84145238             0.00000000
C              2.44067137             2.85041236             0.00000000
C             -2.44067137             2.85041236             0.00000000
H              4.59680947             3.06511524             0.00000000
H             -4.59680947             3.06511524             0.00000000
C              1.22352318             3.55463717             0.00000000
C             -1.22352318             3.55463717             0.00000000
C             -3.63501698             3.58488263             0.00000000
C              3.63501698             3.58488263             0.00000000
C              3.63501698             4.94323687             0.00000000
C             -3.63501698             4.94323687             0.00000000
C             -1.22352318             4.97348234             0.00000000
C              1.22352318             4.97348234             0.00000000
H              4.59680947             5.46300426             0.00000000
H             -4.59680947             5.46300426             0.00000000
C             -2.44067137             5.67770715             0.00000000
C              2.44067137             5.67770715             0.00000000
C              0.00000000             5.68666713             0.00000000
C              0.00000000             7.10551213             0.00000000
C              2.44067137             7.11447211             0.00000000
C             -2.44067137             7.11447211             0.00000000
H             -4.59680947             7.32917500             0.00000000
H              4.59680947             7.32917500             0.00000000
C             -1.22352318             7.81869693             0.00000000
C              1.22352318             7.81869693             0.00000000
C              3.63501698             7.84894239             0.00000000
C             -3.63501698             7.84894239             0.00000000
C              3.63501698             9.20729663             0.00000000
C             -3.63501698             9.20729663             0.00000000
C              1.22352318             9.23754209             0.00000000
C             -1.22352318             9.23754209             0.00000000
H             -4.59680947             9.72706402             0.00000000
H              4.59680947             9.72706402             0.00000000
C              2.44067137             9.94176690             0.00000000
C             -2.44067137             9.94176690             0.00000000
C              0.00000000             9.95072688             0.00000000
C              0.00000000            11.36957188             0.00000000
C             -2.44067137            11.37853186             0.00000000
C              2.44067137            11.37853186             0.00000000
H             -4.59680947            11.59323475             0.00000000
H              4.59680947            11.59323475             0.00000000
C              1.22352318            12.08275668             0.00000000
C             -1.22352318            12.08275668             0.00000000
C             -3.63501698            12.11300214             0.00000000
C              3.63501698            12.11300214             0.00000000
C              3.63501698            13.47135638             0.00000000
C             -3.63501698            13.47135638             0.00000000
C             -1.22352318            13.50160184             0.00000000
C              1.22352318            13.50160184             0.00000000
H             -4.59680947            13.99112377             0.00000000
H              4.59680947            13.99112377             0.00000000
C              2.44067137            14.20582666             0.00000000
C             -2.44067137            14.20582666             0.00000000
C              0.00000000            14.21478664             0.00000000
C              0.00000000            15.63363164             0.00000000
C             -2.44067137            15.64259162             0.00000000
C              2.44067137            15.64259162             0.00000000
H             -4.59680947            15.85729451             0.00000000
H              4.59680947            15.85729451             0.00000000
C              1.22352318            16.34681643             0.00000000
C             -1.22352318            16.34681643             0.00000000
C             -3.63501698            16.37706190             0.00000000
C              3.63501698            16.37706190             0.00000000
C              3.63501698            17.73541614             0.00000000
C             -3.63501698            17.73541614             0.00000000
C              1.22352318            17.76566160             0.00000000
C             -1.22352318            17.76566160             0.00000000
H             -4.59680947            18.25518353             0.00000000
H              4.59680947            18.25518353             0.00000000
C             -2.44067137            18.46988641             0.00000000
C              2.44067137            18.46988641             0.00000000
C              0.00000000            18.47884639             0.00000000
C              0.00000000            19.89769139             0.00000000
C             -2.44067137            19.90665137             0.00000000
C              2.44067137            19.90665137             0.00000000
H             -4.59680947            20.12135426             0.00000000
H              4.59680947            20.12135426             0.00000000
C             -1.22352318            20.61087619             0.00000000
C              1.22352318            20.61087619             0.00000000
C              3.63501698            20.64112165             0.00000000
C             -3.63501698            20.64112165             0.00000000
C              3.63501698            21.99947589             0.00000000
C             -3.63501698            21.99947589             0.00000000
C             -1.22352318            22.02972135             0.00000000
C              1.22352318            22.02972135             0.00000000
H             -4.59680947            22.51924328             0.00000000
H              4.59680947            22.51924328             0.00000000
C              2.44067137            22.73394617             0.00000000
C             -2.44067137            22.73394617             0.00000000
C              0.00000000            22.74290615             0.00000000
C              0.00000000            24.16175115             0.00000000
C             -2.44067137            24.17071113             0.00000000
C              2.44067137            24.17071113             0.00000000
H             -4.59680947            24.38541401             0.00000000
H              4.59680947            24.38541401             0.00000000
C             -1.22352318            24.87493594             0.00000000
C              1.22352318            24.87493594             0.00000000
C              3.63501698            24.90518140             0.00000000
C             -3.63501698            24.90518140             0.00000000
C              3.63501698            26.26353564             0.00000000
C             -3.63501698            26.26353564             0.00000000
C             -1.22352318            26.29378111             0.00000000
C              1.22352318            26.29378111             0.00000000
H              4.59680947            26.78330303             0.00000000
H             -4.59680947            26.78330303             0.00000000
C             -2.44067137            26.99800592             0.00000000
C              2.44067137            26.99800592             0.00000000
C              0.00000000            27.00696590             0.00000000
C              0.00000000            28.42581090             0.00000000
C              2.44067137            28.43477088             0.00000000
C             -2.44067137            28.43477088             0.00000000
H              4.59680947            28.64947377             0.00000000
H             -4.59680947            28.64947377             0.00000000
C             -1.22352318            29.13899570             0.00000000
C              1.22352318            29.13899570             0.00000000
C             -3.63501698            29.16924116             0.00000000
C              3.63501698            29.16924116             0.00000000
C             -3.63501698            30.52759540             0.00000000
C              3.63501698            30.52759540             0.00000000
C             -1.22352318            30.55784086             0.00000000
C              1.22352318            30.55784086             0.00000000
H              4.59680947            31.04736279             0.00000000
H             -4.59680947            31.04736279             0.00000000
C              2.44067137            31.26206567             0.00000000
C             -2.44067137            31.26206567             0.00000000
C              0.00000000            31.27102565             0.00000000
C              0.00000000            32.68987065             0.00000000
C             -2.44067137            32.69883064             0.00000000
C              2.44067137            32.69883064             0.00000000
H              4.59680947            32.91353352             0.00000000
H             -4.59680947            32.91353352             0.00000000
C              1.22352318            33.40305545             0.00000000
C             -1.22352318            33.40305545             0.00000000
C              3.63501698            33.43330091             0.00000000
C             -3.63501698            33.43330091             0.00000000
C             -3.63501698            34.79165515             0.00000000
C              3.63501698            34.79165515             0.00000000
C              1.22352318            34.82190061             0.00000000
C             -1.22352318            34.82190061             0.00000000
H              4.59680947            35.31142254             0.00000000
H             -4.59680947            35.31142254             0.00000000
C             -2.44067137            35.52612543             0.00000000
C              2.44067137            35.52612543             0.00000000
C              0.00000000            35.53508541             0.00000000
C              0.00000000            36.95393041             0.00000000
C              2.44067137            36.96289039             0.00000000
C             -2.44067137            36.96289039             0.00000000
H             -4.59680947            37.17759328             0.00000000
H              4.59680947            37.17759328             0.00000000
C              1.22352318            37.66711520             0.00000000
C             -1.22352318            37.66711520             0.00000000
C              3.63501698            37.69736067             0.00000000
C             -3.63501698            37.69736067             0.00000000
C              3.63501698            39.05571491             0.00000000
C             -3.63501698            39.05571491             0.00000000
C              1.22352318            39.08596037             0.00000000
C             -1.22352318            39.08596037             0.00000000
H             -4.59680947            39.57548230             0.00000000
H              4.59680947            39.57548230             0.00000000
C              2.44067137            39.79018518             0.00000000
C             -2.44067137            39.79018518             0.00000000
C              0.00000000            39.79914516             0.00000000
C              0.00000000            41.21799016             0.00000000
C             -2.44067137            41.22695014             0.00000000
C              2.44067137            41.22695014             0.00000000
H             -4.59680947            41.44165303             0.00000000
H              4.59680947            41.44165303             0.00000000
C              1.22352318            41.93117496             0.00000000
C             -1.22352318            41.93117496             0.00000000
C              3.63501698            41.96142042             0.00000000
C             -3.63501698            41.96142042             0.00000000
C             -3.63501698            43.31977466             0.00000000
C              3.63501698            43.31977466             0.00000000
C             -1.22352318            43.35002012             0.00000000
C              1.22352318            43.35002012             0.00000000
H             -4.59680947            43.83954205             0.00000000
H              4.59680947            43.83954205             0.00000000
C             -2.44067137            44.05424494             0.00000000
C              2.44067137            44.05424494             0.00000000
C              0.00000000            44.06320492             0.00000000
C              0.00000000            45.48204992             0.00000000
C              2.44067137            45.49100990             0.00000000
C             -2.44067137            45.49100990             0.00000000
H              4.59680947            45.70571278             0.00000000
H             -4.59680947            45.70571278             0.00000000
C              1.22352318            46.19523471             0.00000000
C             -1.22352318            46.19523471             0.00000000
C              3.63501698            46.22548017             0.00000000
C             -3.63501698            46.22548017             0.00000000
C              3.63501698            47.58383441             0.00000000
C             -3.63501698            47.58383441             0.00000000
C             -1.22352318            47.61407988             0.00000000
C              1.22352318            47.61407988             0.00000000
H             -4.59680947            48.10360180             0.00000000
H              4.59680947            48.10360180             0.00000000
C              2.44067137            48.31830469             0.00000000
C             -2.44067137            48.31830469             0.00000000
C              0.00000000            48.32726467             0.00000000
C              0.00000000            49.74610967             0.00000000
C             -2.44067137            49.75506965             0.00000000
C              2.44067137            49.75506965             0.00000000
H              4.59680947            49.96977254             0.00000000
H             -4.59680947            49.96977254             0.00000000
C             -1.22352318            50.45929447             0.00000000
C              1.22352318            50.45929447             0.00000000
C              3.63501698            50.48953993             0.00000000
C             -3.63501698            50.48953993             0.00000000
C             -3.63501698            51.84789417             0.00000000
C              3.63501698            51.84789417             0.00000000
C             -1.22352318            51.87813963             0.00000000
C              1.22352318            51.87813963             0.00000000
H              4.59680947            52.36766156             0.00000000
H             -4.59680947            52.36766156             0.00000000
C              2.44067137            52.58236444             0.00000000
C             -2.44067137            52.58236444             0.00000000
C              0.00000000            52.59132442             0.00000000
C              0.00000000            54.01016943             0.00000000
C              2.44067137            54.01912941             0.00000000
C             -2.44067137            54.01912941             0.00000000
H             -4.59680947            54.23383229             0.00000000
H              4.59680947            54.23383229             0.00000000
C              1.22352318            54.72335422             0.00000000
C             -1.22352318            54.72335422             0.00000000
C             -3.63501698            54.75359968             0.00000000
C              3.63501698            54.75359968             0.00000000
C              3.63501698            56.11195392             0.00000000
C             -3.63501698            56.11195392             0.00000000
C              1.22352318            56.14219938             0.00000000
C             -1.22352318            56.14219938             0.00000000
H              4.59680947            56.63172131             0.00000000
H             -4.59680947            56.63172131             0.00000000
C              2.44067137            56.84642420             0.00000000
C             -2.44067137            56.84642420             0.00000000
C              0.00000000            56.85538418             0.00000000
C              0.00000000            58.27422918             0.00000000
C              2.44067137            58.28318916             0.00000000
C             -2.44067137            58.28318916             0.00000000
H             -4.59680947            58.49789205             0.00000000
H              4.59680947            58.49789205             0.00000000
C              1.22352318            58.98741397             0.00000000
C             -1.22352318            58.98741397             0.00000000
C              3.63501698            59.01765944             0.00000000
C             -3.63501698            59.01765944             0.00000000
C             -3.63501698            60.37601368             0.00000000
C              3.63501698            60.37601368             0.00000000
C             -1.22352318            60.40625914             0.00000000
C              1.22352318            60.40625914             0.00000000
H              4.59680947            60.89578107             0.00000000
H             -4.59680947            60.89578107             0.00000000
C              2.44067137            61.11048395             0.00000000
C             -2.44067137            61.11048395             0.00000000
C              0.00000000            61.11944393             0.00000000
C              0.00000000            62.53828893             0.00000000
C              2.44067137            62.54724891             0.00000000
C             -2.44067137            62.54724891             0.00000000
H              4.59680947            62.76195180             0.00000000
H             -4.59680947            62.76195180             0.00000000
C             -1.22352318            63.25147373             0.00000000
C              1.22352318            63.25147373             0.00000000
C              3.63501698            63.28171919             0.00000000
C             -3.63501698            63.28171919             0.00000000
C              3.63501698            64.64007343             0.00000000
C             -3.63501698            64.64007343             0.00000000
C              1.22352318            64.67031889             0.00000000
C             -1.22352318            64.67031889             0.00000000
H              4.59680947            65.15984082             0.00000000
H             -4.59680947            65.15984082             0.00000000
C             -2.44067137            65.37454371             0.00000000
C              2.44067137            65.37454371             0.00000000
C              0.00000000            65.38350369             0.00000000
C              0.00000000            66.80234869             0.00000000
C              2.44067137            66.81130867             0.00000000
C             -2.44067137            66.81130867             0.00000000
H             -4.59680947            67.02601155             0.00000000
H              4.59680947            67.02601155             0.00000000
C             -1.22352318            67.51553348             0.00000000
C              1.22352318            67.51553348             0.00000000
C              3.63501698            67.54577894             0.00000000
C             -3.63501698            67.54577894             0.00000000
C              3.63501698            68.90413318             0.00000000
C             -3.63501698            68.90413318             0.00000000
C             -1.22352318            68.93437865             0.00000000
C              1.22352318            68.93437865             0.00000000
H              4.59680947            69.42390057             0.00000000
H             -4.59680947            69.42390057             0.00000000
C              2.44067137            69.63860346             0.00000000
C             -2.44067137            69.63860346             0.00000000
C              0.00000000            69.64756344             0.00000000
C              0.00000000            71.06640844             0.00000000
C              2.44067137            71.07536842             0.00000000
C             -2.44067137            71.07536842             0.00000000
H              4.59680947            71.29007131             0.00000000
H             -4.59680947            71.29007131             0.00000000
C             -1.22352318            71.77959324             0.00000000
C              1.22352318            71.77959324             0.00000000
C             -3.63501698            71.80983870             0.00000000
C              3.63501698            71.80983870             0.00000000
C             -3.63501698            73.16819294             0.00000000
C              3.63501698            73.16819294             0.00000000
C             -1.22352318            73.19843840             0.00000000
C              1.22352318            73.19843840             0.00000000
H              4.59680947            73.68796033             0.00000000
H             -4.59680947            73.68796033             0.00000000
C             -2.44067137            73.90266322             0.00000000
C              2.44067137            73.90266322             0.00000000
C              0.00000000            73.91162320             0.00000000
C              0.00000000            75.33046819             0.00000000
C             -2.44067137            75.33942817             0.00000000
C              2.44067137            75.33942817             0.00000000
H             -4.59680947            75.55413106             0.00000000
H              4.59680947            75.55413106             0.00000000
C              1.22352318            76.04365299             0.00000000
C             -1.22352318            76.04365299             0.00000000
C             -3.63501698            76.07389845             0.00000000
C              3.63501698            76.07389845             0.00000000
C             -3.63501698            77.43225269             0.00000000
C              3.63501698            77.43225269             0.00000000
C             -1.22352318            77.46249815             0.00000000
C              1.22352318            77.46249815             0.00000000
H             -4.59680947            77.95202008             0.00000000
H              4.59680947            77.95202008             0.00000000
C             -2.44067137            78.16672297             0.00000000
C              2.44067137            78.16672297             0.00000000
C              0.00000000            78.17568295             0.00000000
C              0.00000000            79.59452795             0.00000000
C             -2.44067137            79.60348793             0.00000000
C              2.44067137            79.60348793             0.00000000
H             -4.59680947            79.81819082             0.00000000
H              4.59680947            79.81819082             0.00000000
C              1.22352318            80.30771274             0.00000000
C             -1.22352318            80.30771274             0.00000000
C              3.63501698            80.33795821             0.00000000
C             -3.63501698            80.33795821             0.00000000
C              3.63501698            81.69631245             0.00000000
C             -3.63501698            81.69631245             0.00000000
C             -1.22352318            81.72655791             0.00000000
C              1.22352318            81.72655791             0.00000000
H              4.59680947            82.21607984             0.00000000
H             -4.59680947            82.21607984             0.00000000
C             -2.44067137            82.43078272             0.00000000
C              2.44067137            82.43078272             0.00000000
C              0.00000000            82.43974270             0.00000000
C              0.00000000            83.85858770             0.00000000
C             -2.44067137            83.86754768             0.00000000
C              2.44067137            83.86754768             0.00000000
H              4.59680947            84.08225057             0.00000000
H             -4.59680947            84.08225057             0.00000000
C              1.22352318            84.57177250             0.00000000
C             -1.22352318            84.57177250             0.00000000
C             -3.63501698            84.60201796             0.00000000
C              3.63501698            84.60201796             0.00000000
C             -3.63501698            85.96037220             0.00000000
C              3.63501698            85.96037220             0.00000000
C              1.22352318            85.99061766             0.00000000
C             -1.22352318            85.99061766             0.00000000
H             -4.59680947            86.48013959             0.00000000
H              4.59680947            86.48013959             0.00000000
C             -2.44067137            86.69484248             0.00000000
C              2.44067137            86.69484248             0.00000000
C              0.00000000            86.70380246             0.00000000
C              0.00000000            88.12264746             0.00000000
C             -2.44067137            88.13160744             0.00000000
C              2.44067137            88.13160744             0.00000000
H              4.59680947            88.34631032             0.00000000
H             -4.59680947            88.34631032             0.00000000
C              1.22352318            88.83583225             0.00000000
C             -1.22352318            88.83583225             0.00000000
C             -3.63501698            88.86607771             0.00000000
C              3.63501698            88.86607771             0.00000000
C              3.63501698            90.22443195             0.00000000
C             -3.63501698            90.22443195             0.00000000
C              1.22352318            90.25467742             0.00000000
C             -1.22352318            90.25467742             0.00000000
H             -4.59680947            90.74419934             0.00000000
H              4.59680947            90.74419934             0.00000000
C             -2.44067137            90.95890223             0.00000000
C              2.44067137            90.95890223             0.00000000
C              0.00000000            90.96786221             0.00000000
C              0.00000000            92.38670721             0.00000000
C             -2.44067137            92.39566719             0.00000000
C              2.44067137            92.39566719             0.00000000
H              4.59680947            92.61037008             0.00000000
H             -4.59680947            92.61037008             0.00000000
C             -1.22352318            93.09989201             0.00000000
C              1.22352318            93.09989201             0.00000000
C             -3.63501698            93.13013747             0.00000000
C              3.63501698            93.13013747             0.00000000
C              3.63501698            94.48849171             0.00000000
C             -3.63501698            94.48849171             0.00000000
C              1.22352318            94.51873717             0.00000000
C             -1.22352318            94.51873717             0.00000000
H             -4.59680947            95.00825910             0.00000000
H              4.59680947            95.00825910             0.00000000
C              2.44067137            95.22296198             0.00000000
C             -2.44067137            95.22296198             0.00000000
C              0.00000000            95.23192196             0.00000000
C              0.00000000            96.65076696             0.00000000
C             -2.44067137            96.65972694             0.00000000
C              2.44067137            96.65972694             0.00000000
H              4.59680947            96.87442983             0.00000000
H             -4.59680947            96.87442983             0.00000000
C             -1.22352318            97.36395176             0.00000000
C              1.22352318            97.36395176             0.00000000
C             -3.63501698            97.39419722             0.00000000
C              3.63501698            97.39419722             0.00000000
C             -3.63501698            98.75255146             0.00000000
C              3.63501698            98.75255146             0.00000000
C             -1.22352318            98.78279692             0.00000000
C              1.22352318            98.78279692             0.00000000
H             -4.59680947            99.27231885             0.00000000
H              4.59680947            99.27231885             0.00000000
C             -2.44067137            99.48702174             0.00000000
C              2.44067137            99.48702174             0.00000000
C              0.00000000            99.49598172             0.00000000
C              0.00000000           100.91482672             0.00000000
C             -2.44067137           100.92378670             0.00000000
C              2.44067137           100.92378670             0.00000000
H             -4.59680947           101.13848959             0.00000000
H              4.59680947           101.13848959             0.00000000
C              1.22352318           101.62801151             0.00000000
C             -1.22352318           101.62801151             0.00000000
C              3.63501698           101.65825698             0.00000000
C             -3.63501698           101.65825698             0.00000000
C              3.63501698           103.01661122             0.00000000
C             -3.63501698           103.01661122             0.00000000
C              1.22352318           103.04685668             0.00000000
C             -1.22352318           103.04685668             0.00000000
H             -4.59680947           103.53637861             0.00000000
H              4.59680947           103.53637861             0.00000000
C              2.44067137           103.75108149             0.00000000
C             -2.44067137           103.75108149             0.00000000
C              0.00000000           103.76004147             0.00000000
C              0.00000000           105.17888647             0.00000000
C             -2.44067137           105.18784645             0.00000000
C              2.44067137           105.18784645             0.00000000
H              4.59680947           105.40254934             0.00000000
H             -4.59680947           105.40254934             0.00000000
C              1.22352318           105.89207127             0.00000000
C             -1.22352318           105.89207127             0.00000000
C             -3.63501698           105.92231673             0.00000000
C              3.63501698           105.92231673             0.00000000
C              3.63501698           107.28067097             0.00000000
C             -3.63501698           107.28067097             0.00000000
C             -1.22352318           107.31091643             0.00000000
C              1.22352318           107.31091643             0.00000000
H              4.59680947           107.80043836             0.00000000
H             -4.59680947           107.80043836             0.00000000
C              2.44067137           108.01514125             0.00000000
C             -2.44067137           108.01514125             0.00000000
C              0.00000000           108.02410123             0.00000000
C              0.00000000           109.44294623             0.00000000
C             -2.44067137           109.45190621             0.00000000
C              2.44067137           109.45190621             0.00000000
H              4.59680947           109.66660909             0.00000000
H             -4.59680947           109.66660909             0.00000000
C              1.22352318           110.15613102             0.00000000
C             -1.22352318           110.15613102             0.00000000
C              3.63501698           110.18637648             0.00000000
C             -3.63501698           110.18637648             0.00000000
C             -3.63501698           111.54473072             0.00000000
C              3.63501698           111.54473072             0.00000000
C              1.22352318           111.57497619             0.00000000
C             -1.22352318           111.57497619             0.00000000
H             -4.59680947           112.06449811             0.00000000
H              4.59680947           112.06449811             0.00000000
C             -2.44067137           112.27920100             0.00000000
C              2.44067137           112.27920100             0.00000000
C              0.00000000           112.28816098             0.00000000
C              0.00000000           113.70700598             0.00000000
C             -2.44067137           113.71596596             0.00000000
C              2.44067137           113.71596596             0.00000000
H              4.59680947           113.93066885             0.00000000
H             -4.59680947           113.93066885             0.00000000
C             -1.22352318           114.42019078             0.00000000
C              1.22352318           114.42019078             0.00000000
C              3.63501698           114.45043624             0.00000000
C             -3.63501698           114.45043624             0.00000000
C             -3.63501698           115.80879048             0.00000000
C              3.63501698           115.80879048             0.00000000
C             -1.22352318           115.83903594             0.00000000
C              1.22352318           115.83903594             0.00000000
H              4.59680947           116.32855787             0.00000000
H             -4.59680947           116.32855787             0.00000000
C             -2.44067137           116.54326076             0.00000000
C              2.44067137           116.54326076             0.00000000
C              0.00000000           116.55222074             0.00000000
C              0.00000000           117.97106573             0.00000000
C              2.44067137           117.98002571             0.00000000
C             -2.44067137           117.98002571             0.00000000
H             -4.59680947           118.19472860             0.00000000
H              4.59680947           118.19472860             0.00000000
C             -1.22352318           118.68425053             0.00000000
C              1.22352318           118.68425053             0.00000000
C              3.63501698           118.71449599             0.00000000
C             -3.63501698           118.71449599             0.00000000
C             -3.63501698           120.07285023             0.00000000
C              3.63501698           120.07285023             0.00000000
C             -1.22352318           120.10309569             0.00000000
C              1.22352318           120.10309569             0.00000000
H              4.59680947           120.59261762             0.00000000
H             -4.59680947           120.59261762             0.00000000
C             -2.44067137           120.80732051             0.00000000
C              2.44067137           120.80732051             0.00000000
C              0.00000000           120.81628049             0.00000000
C              0.00000000           122.23512549             0.00000000
C             -2.44067137           122.24408547             0.00000000
C              2.44067137           122.24408547             0.00000000
H             -4.59680947           122.45878836             0.00000000
H              4.59680947           122.45878836             0.00000000
C              1.22352318           122.94831028             0.00000000
C             -1.22352318           122.94831028             0.00000000
C              3.63501698           122.97855575             0.00000000
C             -3.63501698           122.97855575             0.00000000
C             -3.63501698           124.33690999             0.00000000
C              3.63501698           124.33690999             0.00000000
C              1.22352318           124.36715545             0.00000000
C             -1.22352318           124.36715545             0.00000000
H              4.59680947           124.85667738             0.00000000
H             -4.59680947           124.85667738             0.00000000
C             -2.44067137           125.07138026             0.00000000
C              2.44067137           125.07138026             0.00000000
C              0.00000000           125.08034024             0.00000000
C              0.00000000           126.49918524             0.00000000
C             -2.44067137           126.50814522             0.00000000
C              2.44067137           126.50814522             0.00000000
H             -4.59680947           126.72284811             0.00000000
H              4.59680947           126.72284811             0.00000000
C              1.22352318           127.21237004             0.00000000
C             -1.22352318           127.21237004             0.00000000
C             -3.63501698           127.24261550             0.00000000
C              3.63501698           127.24261550             0.00000000
C             -3.63501698           128.60096974             0.00000000
C              3.63501698           128.60096974             0.00000000
C             -1.22352318           128.63121520             0.00000000
C              1.22352318           128.63121520             0.00000000
H             -4.59680947           129.12073713             0.00000000
H              4.59680947           129.12073713             0.00000000
C             -2.44067137           129.33544002             0.00000000
C              2.44067137           129.33544002             0.00000000
C              0.00000000           129.34440000             0.00000000
C              0.00000000           130.76324500             0.00000000
C             -2.44067137           130.77220498             0.00000000
C              2.44067137           130.77220498             0.00000000
H             -4.59680947           130.98690786             0.00000000
H              4.59680947           130.98690786             0.00000000
C             -1.22352318           131.47642979             0.00000000
C              1.22352318           131.47642979             0.00000000
C              3.63501698           131.50667525             0.00000000
C             -3.63501698           131.50667525             0.00000000
C              3.63501698           132.86502949             0.00000000
C             -3.63501698           132.86502949             0.00000000
C              1.22352318           132.89527496             0.00000000
C             -1.22352318           132.89527496             0.00000000
H              4.59680947           133.38479688             0.00000000
H             -4.59680947           133.38479688             0.00000000
C             -2.44067137           133.59949977             0.00000000
C              2.44067137           133.59949977             0.00000000
C              0.00000000           133.60845975             0.00000000
H              0.00000000           134.38150424            -0.77304449
H              0.00000000           134.38150424             0.77304449
H             -2.44067137           134.69274977             0.00000000
H              2.44067137           134.69274977             0.00000000
