152

H             -2.44067137            -2.50689740             0.00000000
H              2.44067137            -2.50689740             0.00000000
H              0.00000000            -2.19565187             0.77304449
H              0.00000000            -2.19565187            -0.77304449
C             -0.00000000            -1.42260738             0.00000000
C             -2.44067137            -1.41364740             0.00000000
C              2.44067137            -1.41364740            -0.00000000
H              4.59680947            -1.19894451             0.00000000
H             -4.59680947            -1.19894451             0.00000000
C              1.22352318            -0.70942258            -0.00000000
C             -1.22352318            -0.70942258             0.00000000
C              3.63501698            -0.67917712            -0.00000000
C             -3.63501698            -0.67917712             0.00000000
C             -3.63501698             0.67917712            -0.00000000
C              3.63501698             0.67917712             0.00000000
C              1.22352318             0.70942258             0.00000000
C             -1.22352318             0.70942258            -0.00000000
H             -4.59680947             1.19894451            -0.00000000
H              4.59680947             1.19894451            -0.00000000
C             -2.44067137             1.41364740            -0.00000000
C              2.44067137             1.41364740             0.00000000
C              0.00000000             1.42260738             0.00000000
C              0.00000000             2.84145238             0.00000000
C             -2.44067137             2.85041236             0.00000000
C              2.44067137             2.85041236             0.00000000
H             -4.59680947             3.06511524             0.00000000
H              4.59680947             3.06511524             0.00000000
C              1.22352318             3.55463717             0.00000000
C             -1.22352318             3.55463717             0.00000000
C              3.63501698             3.58488263             0.00000000
C             -3.63501698             3.58488263             0.00000000
C             -3.63501698             4.94323687             0.00000000
C              3.63501698             4.94323687             0.00000000
C             -1.22352318             4.97348234             0.00000000
C              1.22352318             4.97348234             0.00000000
H              4.59680947             5.46300426             0.00000000
H             -4.59680947             5.46300426             0.00000000
C              2.44067137             5.67770715             0.00000000
C             -2.44067137             5.67770715             0.00000000
C              0.00000000             5.68666713             0.00000000
C              0.00000000             7.10551213             0.00000000
C             -2.44067137             7.11447211             0.00000000
C              2.44067137             7.11447211             0.00000000
H             -4.59680947             7.32917500             0.00000000
H              4.59680947             7.32917500             0.00000000
C             -1.22352318             7.81869693             0.00000000
C              1.22352318             7.81869693             0.00000000
C              3.63501698             7.84894239             0.00000000
C             -3.63501698             7.84894239             0.00000000
C              3.63501698             9.20729663             0.00000000
C             -3.63501698             9.20729663             0.00000000
C             -1.22352318             9.23754209             0.00000000
C              1.22352318             9.23754209             0.00000000
H              4.59680947             9.72706402             0.00000000
H             -4.59680947             9.72706402             0.00000000
C             -2.44067137             9.94176690             0.00000000
C              2.44067137             9.94176690             0.00000000
C              0.00000000             9.95072688             0.00000000
C              0.00000000            11.36957188             0.00000000
C              2.44067137            11.37853186             0.00000000
C             -2.44067137            11.37853186             0.00000000
H             -4.59680947            11.59323475             0.00000000
H              4.59680947            11.59323475             0.00000000
C             -1.22352318            12.08275668             0.00000000
C              1.22352318            12.08275668             0.00000000
C              3.63501698            12.11300214             0.00000000
C             -3.63501698            12.11300214             0.00000000
C             -3.63501698            13.47135638             0.00000000
C              3.63501698            13.47135638             0.00000000
C             -1.22352318            13.50160184             0.00000000
C              1.22352318            13.50160184             0.00000000
H             -4.59680947            13.99112377             0.00000000
H              4.59680947            13.99112377             0.00000000
C             -2.44067137            14.20582666             0.00000000
C              2.44067137            14.20582666             0.00000000
C              0.00000000            14.21478664             0.00000000
C              0.00000000            15.63363164             0.00000000
C              2.44067137            15.64259162             0.00000000
C             -2.44067137            15.64259162             0.00000000
H              4.59680947            15.85729451             0.00000000
H             -4.59680947            15.85729451             0.00000000
C             -1.22352318            16.34681643             0.00000000
C              1.22352318            16.34681643             0.00000000
C              3.63501698            16.37706190             0.00000000
C             -3.63501698            16.37706190             0.00000000
C             -3.63501698            17.73541614             0.00000000
C              3.63501698            17.73541614             0.00000000
C              1.22352318            17.76566160             0.00000000
C             -1.22352318            17.76566160             0.00000000
H              4.59680947            18.25518353             0.00000000
H             -4.59680947            18.25518353             0.00000000
C              2.44067137            18.46988641             0.00000000
C             -2.44067137            18.46988641             0.00000000
C              0.00000000            18.47884639             0.00000000
C              0.00000000            19.89769139             0.00000000
C              2.44067137            19.90665137             0.00000000
C             -2.44067137            19.90665137             0.00000000
H             -4.59680947            20.12135426             0.00000000
H              4.59680947            20.12135426             0.00000000
C              1.22352318            20.61087619             0.00000000
C             -1.22352318            20.61087619             0.00000000
C              3.63501698            20.64112165             0.00000000
C             -3.63501698            20.64112165             0.00000000
C              3.63501698            21.99947589             0.00000000
C             -3.63501698            21.99947589             0.00000000
C              1.22352318            22.02972135             0.00000000
C             -1.22352318            22.02972135             0.00000000
H              4.59680947            22.51924328             0.00000000
H             -4.59680947            22.51924328             0.00000000
C              2.44067137            22.73394617             0.00000000
C             -2.44067137            22.73394617             0.00000000
C              0.00000000            22.74290615             0.00000000
C              0.00000000            24.16175115             0.00000000
C              2.44067137            24.17071113             0.00000000
C             -2.44067137            24.17071113             0.00000000
H             -4.59680947            24.38541401             0.00000000
H              4.59680947            24.38541401             0.00000000
C              1.22352318            24.87493594             0.00000000
C             -1.22352318            24.87493594             0.00000000
C              3.63501698            24.90518140             0.00000000
C             -3.63501698            24.90518140             0.00000000
C             -3.63501698            26.26353564             0.00000000
C              3.63501698            26.26353564             0.00000000
C             -1.22352318            26.29378111             0.00000000
C              1.22352318            26.29378111             0.00000000
H             -4.59680947            26.78330303             0.00000000
H              4.59680947            26.78330303             0.00000000
C              2.44067137            26.99800592             0.00000000
C             -2.44067137            26.99800592             0.00000000
C              0.00000000            27.00696590             0.00000000
C              0.00000000            28.42581090             0.00000000
C             -2.44067137            28.43477088             0.00000000
C              2.44067137            28.43477088             0.00000000
H              4.59680947            28.64947377             0.00000000
H             -4.59680947            28.64947377             0.00000000
C             -1.22352318            29.13899570             0.00000000
C              1.22352318            29.13899570             0.00000000
C              3.63501698            29.16924116             0.00000000
C             -3.63501698            29.16924116             0.00000000
C              3.63501698            30.52759540             0.00000000
C             -3.63501698            30.52759540             0.00000000
C             -1.22352318            30.55784086             0.00000000
C              1.22352318            30.55784086             0.00000000
H             -4.59680947            31.04736279             0.00000000
H              4.59680947            31.04736279             0.00000000
C             -2.44067137            31.26206567             0.00000000
C              2.44067137            31.26206567             0.00000000
C              0.00000000            31.27102565             0.00000000
H              0.00000000            32.04407014             0.77304449
H              0.00000000            32.04407014            -0.77304449
H             -2.44067137            32.35531567             0.00000000
H              2.44067137            32.35531567             0.00000000
