cpu-bind=MASK - n2lcn0163, task  0  0 [746426]: mask 0x|BBBBBBBB|BBBBBBBB||--------|--------||--------|--------||--------|--------||||--------|--------||--------|--------||--------|--------||--------|--------| set
cpu-bind=MASK - n2lcn0163, task  1  1 [746427]: mask 0x|--------|--------||BBBBBBBB|BBBBBBBB||--------|--------||--------|--------||||--------|--------||--------|--------||--------|--------||--------|--------| set
cpu-bind=MASK - n2lcn0163, task  2  2 [746428]: mask 0x|--------|--------||--------|--------||BBBBBBBB|BBBBBBBB||--------|--------||||--------|--------||--------|--------||--------|--------||--------|--------| set
cpu-bind=MASK - n2lcn0163, task  3  3 [746429]: mask 0x|--------|--------||--------|--------||--------|--------||BBBBBBBB|BBBBBBBB||||--------|--------||--------|--------||--------|--------||--------|--------| set
cpu-bind=MASK - n2lcn0163, task  4  4 [746430]: mask 0x|--------|--------||--------|--------||--------|--------||--------|--------||||BBBBBBBB|BBBBBBBB||--------|--------||--------|--------||--------|--------| set
cpu-bind=MASK - n2lcn0163, task  5  5 [746431]: mask 0x|--------|--------||--------|--------||--------|--------||--------|--------||||--------|--------||BBBBBBBB|BBBBBBBB||--------|--------||--------|--------| set
cpu-bind=MASK - n2lcn0163, task  6  6 [746432]: mask 0x|--------|--------||--------|--------||--------|--------||--------|--------||||--------|--------||--------|--------||BBBBBBBB|BBBBBBBB||--------|--------| set
cpu-bind=MASK - n2lcn0163, task  7  7 [746433]: mask 0x|--------|--------||--------|--------||--------|--------||--------|--------||||--------|--------||--------|--------||--------|--------||BBBBBBBB|BBBBBBBB| set
 DBCSR| CPU Multiplication driver                                           XSMM (U)
 DBCSR| Multrec recursion limit                                              512 (U)
 DBCSR| Multiplication stack size                                           1000 (D)
 DBCSR| Maximum elements for images                                    UNLIMITED (U)
 DBCSR| Multiplicative factor virtual images                                   1 (U)
 DBCSR| Use multiplication densification                                       T (D)
 DBCSR| Multiplication size stacks                                             3 (U)
 DBCSR| Use memory pool for CPU allocation                                     F (U)
 DBCSR| Number of 3D layers                                               SINGLE (U)
 DBCSR| Use MPI memory allocation                                              F (U)
 DBCSR| Use RMA algorithm                                                      F (U)
 DBCSR| Use Communication thread                                               T (U)
 DBCSR| Communication thread load                                             30 (D)
 DBCSR| MPI: My process id                                                     0
 DBCSR| MPI: Number of processes                                               8
 DBCSR| OMP: Current number of threads                                        16
 DBCSR| OMP: Max number of threads                                            16
 DBCSR| Split modifier for TAS multiplication algorithm                  1.0E+00 (U)


  **** **** ******  **  PROGRAM STARTED AT               2026-09-28 13:26:47.209
 ***** ** ***  *** **   PROGRAM STARTED ON                             n2lcn0163
 **    ****   ******    PROGRAM STARTED BY                              metdyn07
 ***** **    ** ** **   PROGRAM PROCESS ID                                746426
  **** **  *******  **  PROGRAM STARTED IN /scratch/hpc-prf-metdyn/metdyn07_Rita
                                           j/otus/max-nanographene/2

 CP2K| version string:                 CP2K version 2026.2 (Development Version)
 CP2K| source code revision number:                                   0005d2399e
 CP2K| cp2kflags: omp libint fftw3 libxc elpa parallel scalapack mpi_f08 cosma l
 CP2K|            ibxs libxsmm plumed2 spglib openblas sirius libvori libbqb lib
 CP2K|            bvdwxc hdf5 greenx
 CP2K| is freely available from                            https://www.cp2k.org/
 CP2K| Program compiled at                                   2026-09-14 14:16:23
 CP2K| Program compiled on                                              n2login5
 CP2K| Program compiled for                                               x86_64
 CP2K| Data directory path    /pc2/groups/hpc-prf-metdyn/metdyn07_Ritaj/implemen
 CP2K| Input file name                                                 input.inp

 GLOBAL| Force Environment number                                              1
 GLOBAL| Basis set file name             BASIS_GTH_MOLOPT_AUG_for_excited_states
 GLOBAL| Potential file name                                      GTH_POTENTIALS
 GLOBAL| MM Potential file name                                     MM_POTENTIAL
 GLOBAL| Coordinate file name                                          struc.xyz
 GLOBAL| Method name                                                        CP2K
 GLOBAL| Project name                                                      rec_4
 GLOBAL| Run type                                                 RT_PROPAGATION
 GLOBAL| FFT library                                                       FFTW3
 GLOBAL| Diagonalization library                                            ELPA
 GLOBAL| Cholesky decomposition library                                ScaLAPACK
 GLOBAL| DGEMM library                                                      BLAS
 GLOBAL| Minimum number of eigenvectors for ELPA usage                        64
 GLOBAL| Orthonormality check for eigenvectors                          DISABLED
 GLOBAL| Matrix multiplication library                                     COSMA
 GLOBAL| All-to-all communication in single precision                          F
 GLOBAL| Grid backend                                                       AUTO
 GLOBAL| Global print level                                               MEDIUM
 GLOBAL| MPI I/O enabled                                                       T
 GLOBAL| Total number of message passing processes                             8
 GLOBAL| Number of distributed systems (nodes)                                 1
 GLOBAL| Number of threads for this process                                   16
 GLOBAL| This output is from process                                           0
 GLOBAL| OpenMP stack size per thread (OMP_STACKSIZE)                    default
 GLOBAL| CPU model name                          AMD EPYC 7763 64-Core Processor
 GLOBAL| CPUID                                                              1002
 GLOBAL| Compiled for CPUID                                                    0

 *** HINT in environment.F:968 :: The compiler target (generic) used to ***
 *** build this binary does not enable all instruction-set extensions   ***
 *** available on this CPU (x86_avx2). Consider reconfiguring and       ***
 *** rebuilding CP2K for this target system to enable them.             ***


 MEMORY| system memory details [Kb]
 MEMORY|                        rank 0           min           max       average
 MEMORY| MemTotal           1056620484    1056620484    1056620484    1056620484
 MEMORY| MemFree            1042748280    1042748280    1042748280    1042748280
 MEMORY| Buffers                 26320         26320         26320         26320
 MEMORY| Cached                7131416       7131416       7131416       7131416
 MEMORY| Slab                  2365308       2365308       2365308       2365308
 MEMORY| SReclaimable           728636        728636        728636        728636
 MEMORY| MemLikelyFree      1050634652    1050634652    1050634652    1050634652


 *** Fundamental physical constants (SI units) ***

 *** Literature: B. J. Mohr and B. N. Taylor,
 ***             CODATA recommended values of the fundamental physical
 ***             constants: 2006, Web Version 5.1
 ***             http://physics.nist.gov/constants

 Speed of light in vacuum [m/s]                             2.99792458000000E+08
 Magnetic constant or permeability of vacuum [N/A**2]       1.25663706143592E-06
 Electric constant or permittivity of vacuum [F/m]          8.85418781762039E-12
 Planck constant (h) [J*s]                                  6.62606896000000E-34
 Planck constant (h-bar) [J*s]                              1.05457162825177E-34
 Elementary charge [C]                                      1.60217648700000E-19
 Electron mass [kg]                                         9.10938215000000E-31
 Electron g factor [ ]                                     -2.00231930436220E+00
 Proton mass [kg]                                           1.67262163700000E-27
 Fine-structure constant                                    7.29735253760000E-03
 Rydberg constant [1/m]                                     1.09737315685270E+07
 Avogadro constant [1/mol]                                  6.02214179000000E+23
 Boltzmann constant [J/K]                                   1.38065040000000E-23
 Atomic mass unit [kg]                                      1.66053878200000E-27
 Bohr radius [m]                                            5.29177208590000E-11

 *** Conversion factors ***

 [u] -> [a.u.]                                              1.82288848426455E+03
 [Angstrom] -> [Bohr] = [a.u.]                              1.88972613288564E+00
 [a.u.] = [Bohr] -> [Angstrom]                              5.29177208590000E-01
 [a.u.] -> [s]                                              2.41888432650478E-17
 [a.u.] -> [fs]                                             2.41888432650478E-02
 [a.u.] -> [J]                                              4.35974393937059E-18
 [a.u.] -> [N]                                              8.23872205491840E-08
 [a.u.] -> [K]                                              3.15774647902944E+05
 [a.u.] -> [kJ/mol]                                         2.62549961709828E+03
 [a.u.] -> [kcal/mol]                                       6.27509468713739E+02
 [a.u.] -> [Pa]                                             2.94210107994716E+13
 [a.u.] -> [bar]                                            2.94210107994716E+08
 [a.u.] -> [atm]                                            2.90362800883016E+08
 [a.u.] -> [eV]                                             2.72113838565563E+01
 [a.u.] -> [Hz]                                             6.57968392072181E+15
 [a.u.] -> [1/cm] (wave numbers)                            2.19474631370540E+05
 [a.u./Bohr**2] -> [1/cm]                                   5.14048714338585E+03
 

 CELL| Volume [angstrom^3]:                                          4273.305960
 CELL| Vector a [angstrom]:      19.190     0.000     0.000   |a| =    19.190000
 CELL| Vector b [angstrom]:       0.000    19.280     0.000   |b| =    19.280000
 CELL| Vector c [angstrom]:       0.000     0.000    11.550   |c| =    11.550000
 CELL| Angle (b,c), alpha [degree]:                                    90.000000
 CELL| Angle (a,c), beta  [degree]:                                    90.000000
 CELL| Angle (a,b), gamma [degree]:                                    90.000000
 CELL| Numerically orthorhombic:                                             YES
 CELL| Periodicity                                                          NONE

 CELL_REF| Volume [angstrom^3]:                                      4273.305960
 CELL_REF| Vector a [angstrom    19.190     0.000     0.000   |a| =    19.190000
 CELL_REF| Vector b [angstrom     0.000    19.280     0.000   |b| =    19.280000
 CELL_REF| Vector c [angstrom     0.000     0.000    11.550   |c| =    11.550000
 CELL_REF| Angle (b,c), alpha [degree]:                                90.000000
 CELL_REF| Angle (a,c), beta  [degree]:                                90.000000
 CELL_REF| Angle (a,b), gamma [degree]:                                90.000000
 CELL_REF| Numerically orthorhombic:                                         YES
 CELL_REF| Periodicity                                                      NONE

 GENERATE|  Preliminary Number of Bonds generated:                             0
 GENERATE|  Achieved consistency in connectivity generation.

 PW_GRID| Information for grid number                                          1
 PW_GRID| Cutoff [a.u.]                                                      8.6
 PW_GRID| spherical cutoff:                                                   NO
 PW_GRID|   Bounds   1              0      49                Points:          50
 PW_GRID|   Bounds   2              0      49                Points:          50
 PW_GRID|   Bounds   3              0      49                Points:          50
 PW_GRID| Volume element (a.u.^3)  0.2307         Volume (a.u.^3)     28837.6984
 PW_GRID| Grid span                                                    HALFSPACE

 *******************************************************************************
 *******************************************************************************
 **                                                                           **
 **     #####                         ##              ##                      **
 **    ##   ##            ##          ##              ##                      **
 **   ##     ##                       ##            ######                    **
 **   ##     ##  ##   ##  ##   #####  ##  ##   ####   ##    #####    #####    **
 **   ##     ##  ##   ##  ##  ##      ## ##   ##      ##   ##   ##  ##   ##   **
 **   ##  ## ##  ##   ##  ##  ##      ####     ###    ##   ######   ######    **
 **    ##  ###   ##   ##  ##  ##      ## ##      ##   ##   ##       ##        **
 **     #######   #####   ##   #####  ##  ##  ####    ##    #####   ##        **
 **           ##                                                    ##        **
 **                                                                           **
 **                                                ... make the atoms dance   **
 **                                                                           **
 **            Copyright (C) by CP2K developers group (2000-2026)             **
 **                      J. Chem. Phys. 152, 194103 (2020)                    **
 **                                                                           **
 *******************************************************************************

 DFT| Spin restricted Kohn-Sham (RKS) calculation                            RKS
 DFT| Multiplicity                                                             1
 DFT| Number of spin states                                                    1
 DFT| Charge                                                                   0
 DFT| Self-interaction correction (SIC)                                       NO
 DFT| Cutoffs: density                                              1.000000E-10
 DFT|          gradient                                             1.000000E-10
 DFT|          tau                                                  1.000000E-10
 DFT|          cutoff_smoothing_range                               0.000000E+00
 DFT| XC density smoothing                                                  NONE
 DFT| XC derivatives                                                          PW

 FUNCTIONAL| PBE:
 FUNCTIONAL| J.P.Perdew, K.Burke, M.Ernzerhof, Phys. Rev. Letter, vol. 77, n 18,
 FUNCTIONAL|  pp. 3865-3868, (1996) {spin unpolarized}                          


 QS| Method:                                                                 GPW
 QS| Density plane wave grid type                        NON-SPHERICAL FULLSPACE
 QS| Number of grid levels:                                                    4
 QS| Density cutoff [a.u.]:                                                300.0
 QS| Multi grid cutoff [a.u.]: 1) grid level                               300.0
 QS|                           2) grid level                               100.0
 QS|                           3) grid level                                33.3
 QS|                           4) grid level                                11.1
 QS| Grid level progression factor:                                          3.0
 QS| Relative density cutoff [a.u.]:                                        30.0
 QS| Interaction thresholds: eps_pgf_orb:                                3.2E-08
 QS|                         eps_filter_matrix:                          0.0E+00
 QS|                         eps_core_charge:                            1.0E-17
 QS|                         eps_rho_gspace:                             1.0E-15
 QS|                         eps_rho_rspace:                             1.0E-15
 QS|                         eps_gvg_rspace:                             3.2E-08
 QS|                         eps_ppl:                                    1.0E-02
 QS|                         eps_ppnl:                                   3.2E-10


 ATOMIC KIND INFORMATION

  1. Atomic kind: C                                     Number of atoms:      28

     Orbital Basis Set                                 aug-SZV-MOLOPT-GTH-tier-2

       Number of orbital shell sets:                                           1
       Number of orbital shells:                                               5
       Number of primitive Cartesian functions:                                6
       Number of Cartesian basis functions:                                   14
       Number of spherical basis functions:                                   13
       Norm type:                                                              2

       Normalised Cartesian orbitals:

                        Set   Shell   Orbital            Exponent    Coefficient

                          1       1    2s                0.070000       0.000000
                                                         0.128212      -0.022789
                                                         0.348157      -0.219794
                                                         0.769911      -0.209686
                                                         2.113016       0.213043
                                                         5.605331       0.322515

                          1       2    3s                0.070000       0.133509
                                                         0.128212      -0.041206
                                                         0.348157      -0.081784
                                                         0.769911      -0.003005
                                                         2.113016       0.000000
                                                         5.605331       0.000000

                          1       3    3px               0.070000       0.000000
                                                         0.128212      -0.027849
                                                         0.348157      -0.139743
                                                         0.769911      -0.374851
                                                         2.113016      -0.642521
                                                         5.605331      -0.703879
                          1       3    3py               0.070000       0.000000
                                                         0.128212      -0.027849
                                                         0.348157      -0.139743
                                                         0.769911      -0.374851
                                                         2.113016      -0.642521
                                                         5.605331      -0.703879
                          1       3    3pz               0.070000       0.000000
                                                         0.128212      -0.027849
                                                         0.348157      -0.139743
                                                         0.769911      -0.374851
                                                         2.113016      -0.642521
                                                         5.605331      -0.703879

                          1       4    4px               0.070000       0.033242
                                                         0.128212       0.023307
                                                         0.348157       0.113522
                                                         0.769911      -0.094955
                                                         2.113016       0.000000
                                                         5.605331       0.000000
                          1       4    4py               0.070000       0.033242
                                                         0.128212       0.023307
                                                         0.348157       0.113522
                                                         0.769911      -0.094955
                                                         2.113016       0.000000
                                                         5.605331       0.000000
                          1       4    4pz               0.070000       0.033242
                                                         0.128212       0.023307
                                                         0.348157       0.113522
                                                         0.769911      -0.094955
                                                         2.113016       0.000000
                                                         5.605331       0.000000

                          1       5    4dx2              0.070000      -0.000111
                                                         0.128212       0.037828
                                                         0.348157       0.043639
                                                         0.769911       0.120124
                                                         2.113016       0.000000
                                                         5.605331       0.000000
                          1       5    4dxy              0.070000      -0.000193
                                                         0.128212       0.065520
                                                         0.348157       0.075585
                                                         0.769911       0.208061
                                                         2.113016       0.000000
                                                         5.605331       0.000000
                          1       5    4dxz              0.070000      -0.000193
                                                         0.128212       0.065520
                                                         0.348157       0.075585
                                                         0.769911       0.208061
                                                         2.113016       0.000000
                                                         5.605331       0.000000
                          1       5    4dy2              0.070000      -0.000111
                                                         0.128212       0.037828
                                                         0.348157       0.043639
                                                         0.769911       0.120124
                                                         2.113016       0.000000
                                                         5.605331       0.000000
                          1       5    4dyz              0.070000      -0.000193
                                                         0.128212       0.065520
                                                         0.348157       0.075585
                                                         0.769911       0.208061
                                                         2.113016       0.000000
                                                         5.605331       0.000000
                          1       5    4dz2              0.070000      -0.000111
                                                         0.128212       0.037828
                                                         0.348157       0.043639
                                                         0.769911       0.120124
                                                         2.113016       0.000000
                                                         5.605331       0.000000

     RI Auxiliary Basis Set             RI_aug-SZV-MOLOPT-GTH-tier-2_N_RI_030_s_

       Number of orbital shell sets:                                          10
       Number of orbital shells:                                              10
       Number of primitive Cartesian functions:                               10
       Number of Cartesian basis functions:                                   35
       Number of spherical basis functions:                                   30
       Norm type:                                                              2

       Normalised Cartesian orbitals:

                        Set   Shell   Orbital            Exponent    Coefficient

                          1       1    1s                0.191848       0.206599

                          2       1    2s                0.736300       0.566502

                          3       1    3s                2.917592       1.591031

                          4       1    4s                9.448168       3.840792

                          5       1    5px               0.281885       0.292772
                          5       1    5py               0.281885       0.292772
                          5       1    5pz               0.281885       0.292772

                          6       1    6px               0.984576       1.397983
                          6       1    6py               0.984576       1.397983
                          6       1    6pz               0.984576       1.397983

                          7       1    7px               2.475409       4.425871
                          7       1    7py               2.475409       4.425871
                          7       1    7pz               2.475409       4.425871

                          8       1    8dx2              0.347629       0.259037
                          8       1    8dxy              0.347629       0.448666
                          8       1    8dxz              0.347629       0.448666
                          8       1    8dy2              0.347629       0.259037
                          8       1    8dyz              0.347629       0.448666
                          8       1    8dz2              0.347629       0.259037

                          9       1    9dx2              1.822216       4.703911
                          9       1    9dxy              1.822216       8.147414
                          9       1    9dxz              1.822216       8.147414
                          9       1    9dy2              1.822216       4.703911
                          9       1    9dyz              1.822216       8.147414
                          9       1    9dz2              1.822216       4.703911

                         10       1   10fx3              0.497967       0.306659
                         10       1   10fx2y             0.497967       0.685710
                         10       1   10fx2z             0.497967       0.685710
                         10       1   10fxy2             0.497967       0.685710
                         10       1   10fxyz             0.497967       1.187685
                         10       1   10fxz2             0.497967       0.685710
                         10       1   10fy3              0.497967       0.306659
                         10       1   10fy2z             0.497967       0.685710
                         10       1   10fyz2             0.497967       0.685710
                         10       1   10fz3              0.497967       0.306659

       Atomic covalent radius [Angstrom]:                                  0.770

       Atomic van der Waals radius [Angstrom]:                             1.700

     GTH Potential information for                                    GTH-PBE-q4

       Description:                       Goedecker-Teter-Hutter pseudopotential
                                           Goedecker et al., PRB 54, 1703 (1996)
                                          Hartwigsen et al., PRB 58, 3641 (1998)
                                                      Krack, TCA 114, 145 (2005)

       Gaussian exponent of the core charge distribution:               4.364419
       Electronic configuration (s p d ...):                               2   2

       Parameters of the local part of the GTH pseudopotential:

                          rloc        C1          C2          C3          C4
                        0.338471   -8.803674    1.339211

       Parameters of the non-local part of the GTH pseudopotential:

                   l      r(l)      h(i,j,l)

                   0    0.302576    9.622487
                   1    0.291507

  2. Atomic kind: H                                     Number of atoms:      16

     Orbital Basis Set                                 aug-SZV-MOLOPT-GTH-tier-2

       Number of orbital shell sets:                                           1
       Number of orbital shells:                                               4
       Number of primitive Cartesian functions:                                7
       Number of Cartesian basis functions:                                    6
       Number of spherical basis functions:                                    6
       Norm type:                                                              2

       Normalised Cartesian orbitals:

                        Set   Shell   Orbital            Exponent    Coefficient

                          1       1    2s                0.050000       0.000000
                                                         0.082193      -0.014019
                                                         0.239116      -0.107525
                                                         0.450000       0.000000
                                                         0.791502      -0.258419
                                                         2.680223      -0.177618
                                                        10.068468      -0.133023

                          1       2    3s                0.050000       0.064974
                                                         0.082193       0.029198
                                                         0.239116      -0.007574
                                                         0.450000      -0.090795
                                                         0.791502      -0.025739
                                                         2.680223       0.000002
                                                        10.068468       0.000000

                          1       3    4s                0.050000      -0.067626
                                                         0.082193       0.244167
                                                         0.239116      -0.094768
                                                         0.450000      -0.043967
                                                         0.791502      -0.043572
                                                         2.680223      -0.153771
                                                        10.068468       0.000000

                          1       4    3px               0.050000       0.038628
                                                         0.082193      -0.015554
                                                         0.239116       0.034455
                                                         0.450000       0.013474
                                                         0.791502      -0.005076
                                                         2.680223       0.028739
                                                        10.068468       0.000000
                          1       4    3py               0.050000       0.038628
                                                         0.082193      -0.015554
                                                         0.239116       0.034455
                                                         0.450000       0.013474
                                                         0.791502      -0.005076
                                                         2.680223       0.028739
                                                        10.068468       0.000000
                          1       4    3pz               0.050000       0.038628
                                                         0.082193      -0.015554
                                                         0.239116       0.034455
                                                         0.450000       0.013474
                                                         0.791502      -0.005076
                                                         2.680223       0.028739
                                                        10.068468       0.000000

     RI Auxiliary Basis Set             RI_aug-SZV-MOLOPT-GTH-tier-2_N_RI_005_s_

       Number of orbital shell sets:                                           3
       Number of orbital shells:                                               3
       Number of primitive Cartesian functions:                                3
       Number of Cartesian basis functions:                                    5
       Number of spherical basis functions:                                    5
       Norm type:                                                              2

       Normalised Cartesian orbitals:

                        Set   Shell   Orbital            Exponent    Coefficient

                          1       1    1s                0.184491       0.200628

                          2       1    2s                3.030559       1.637013

                          3       1    3px               0.610174       0.768701
                          3       1    3py               0.610174       0.768701
                          3       1    3pz               0.610174       0.768701

       Atomic covalent radius [Angstrom]:                                  0.320

       Atomic van der Waals radius [Angstrom]:                             1.090

     GTH Potential information for                                    GTH-PBE-q1

       Description:                       Goedecker-Teter-Hutter pseudopotential
                                           Goedecker et al., PRB 54, 1703 (1996)
                                          Hartwigsen et al., PRB 58, 3641 (1998)
                                                      Krack, TCA 114, 145 (2005)

       Gaussian exponent of the core charge distribution:              12.500000
       Electronic configuration (s p d ...):                                   1

       Parameters of the local part of the GTH pseudopotential:

                          rloc        C1          C2          C3          C4
                        0.200000   -4.178900    0.724463


 MOLECULE KIND INFORMATION


 All atoms are their own molecule, skipping detailed information


 TOTAL NUMBERS AND MAXIMUM NUMBERS

  Total number of            - Atomic kinds:                                   2
                             - Atoms:                                         44
                             - Shell sets:                                    44
                             - Shells:                                       204
                             - Primitive Cartesian functions:                280
                             - Cartesian basis functions:                    488
                             - Spherical basis functions:                    460

  Maximum angular momentum of- Orbital basis functions:                        2
                             - Local part of the GTH pseudopotential:          2
                             - Non-local part of the GTH pseudopotential:      0


 MODULE QUICKSTEP: ATOMIC COORDINATES IN ANGSTROM

   Atom Kind Element         X             Y             Z       Z(eff)     Mass
      1    1 C     6      5.959983      8.187147      5.775000   4.0000  12.0107
      2    1 C     6      7.154329      8.921618      5.775000   4.0000  12.0107
      3    1 C     6      8.371477      8.217393      5.775000   4.0000  12.0107
      4    1 C     6      9.595000      8.930578      5.775000   4.0000  12.0107
      5    1 C     6     10.818523      8.217393      5.775000   4.0000  12.0107
      6    1 C     6     12.035671      8.921618      5.775000   4.0000  12.0107
      7    1 C     6     13.230017      8.187147      5.775000   4.0000  12.0107
      8    1 C     6      5.959983     11.092853      5.775000   4.0000  12.0107
      9    1 C     6      5.959983     12.451207      5.775000   4.0000  12.0107
     10    1 C     6      7.154329     10.358382      5.775000   4.0000  12.0107
     11    1 C     6      8.371477     11.062607      5.775000   4.0000  12.0107
     12    1 C     6      9.595000     10.349423      5.775000   4.0000  12.0107
     13    1 C     6     10.818523     11.062607      5.775000   4.0000  12.0107
     14    1 C     6     12.035671     10.358382      5.775000   4.0000  12.0107
     15    1 C     6     13.230017     11.092853      5.775000   4.0000  12.0107
     16    1 C     6     13.230017     12.451207      5.775000   4.0000  12.0107
     17    2 H     1      4.998191      6.309026      5.775000   1.0000   1.0079
     18    2 H     1      4.998191      8.706915      5.775000   1.0000   1.0079
     19    2 H     1     14.191809      6.309026      5.775000   1.0000   1.0079
     20    2 H     1     14.191809      8.706915      5.775000   1.0000   1.0079
     21    2 H     1      4.998191     10.573085      5.775000   1.0000   1.0079
     22    2 H     1      4.998191     12.970974      5.775000   1.0000   1.0079
     23    2 H     1     14.191809     10.573085      5.775000   1.0000   1.0079
     24    2 H     1     14.191809     12.970974      5.775000   1.0000   1.0079
     25    1 C     6      5.959983      6.828793      5.775000   4.0000  12.0107
     26    1 C     6     13.230017      6.828793      5.775000   4.0000  12.0107
     27    1 C     6      7.154329      6.094323      5.775000   4.0000  12.0107
     28    1 C     6      8.371477      6.798548      5.775000   4.0000  12.0107
     29    1 C     6      9.595000      6.085363      5.775000   4.0000  12.0107
     30    1 C     6     10.818523      6.798548      5.775000   4.0000  12.0107
     31    1 C     6     12.035671      6.094323      5.775000   4.0000  12.0107
     32    1 C     6      7.154329     13.185677      5.775000   4.0000  12.0107
     33    1 C     6      8.371477     12.481452      5.775000   4.0000  12.0107
     34    1 C     6      9.595000     13.194637      5.775000   4.0000  12.0107
     35    1 C     6     10.818523     12.481452      5.775000   4.0000  12.0107
     36    1 C     6     12.035671     13.185677      5.775000   4.0000  12.0107
     37    2 H     1      7.154329      5.001073      5.775000   1.0000   1.0079
     38    2 H     1      9.595000      5.312318      6.548044   1.0000   1.0079
     39    2 H     1      9.595000      5.312318      5.001956   1.0000   1.0079
     40    2 H     1     12.035671      5.001073      5.775000   1.0000   1.0079
     41    2 H     1      7.154329     14.278927      5.775000   1.0000   1.0079
     42    2 H     1      9.595000     13.967682      6.548044   1.0000   1.0079
     43    2 H     1      9.595000     13.967682      5.001956   1.0000   1.0079
     44    2 H     1     12.035671     14.278927      5.775000   1.0000   1.0079



 SCF PARAMETERS         Density guess:                                   RESTART
                        --------------------------------------------------------
                        max_scf:                                             300
                        max_scf_history:                                       0
                        max_diis:                                              4
                        --------------------------------------------------------
                        eps_scf:                                        1.00E-07
                        eps_scf_history:                                0.00E+00
                        eps_diis:                                       1.00E-01
                        eps_eigval:                                     1.00E-05
                        --------------------------------------------------------
                        level_shift [a.u.]:                             0.000000
                        SCF update method:                                MIXING
                        added MOs                                       100    0
                        --------------------------------------------------------
                        Mixing method:                            BROYDEN_MIXING
                                                charge density mixing in g-space
                        --------------------------------------------------------
                        No outer SCF

 PW_GRID| Information for grid number                                          2
 PW_GRID| Grid distributed over                                     8 processors
 PW_GRID| Real space group dimensions                                     8    1
 PW_GRID| the grid is blocked:                                                NO
 PW_GRID| Cutoff [a.u.]                                                    300.0
 PW_GRID| spherical cutoff:                                                   NO
 PW_GRID|   Bounds   1           -144     143                Points:         288
 PW_GRID|   Bounds   2           -144     143                Points:         288
 PW_GRID|   Bounds   3            -90      89                Points:         180
 PW_GRID| Volume element (a.u.^3)  0.1932E-02     Volume (a.u.^3)     28837.6984
 PW_GRID| Grid span                                                    FULLSPACE
 PW_GRID|   Distribution                         Average         Max         Min
 PW_GRID|   G-Vectors                          1866240.0     1866240     1866240
 PW_GRID|   G-Rays                                6480.0        6480        6480
 PW_GRID|   Real Space Points                  1866240.0     1866240     1866240

 PW_GRID| Information for grid number                                          3
 PW_GRID| Number of the reference grid                                         2
 PW_GRID| Grid distributed over                                     8 processors
 PW_GRID| Real space group dimensions                                     8    1
 PW_GRID| the grid is blocked:                                                NO
 PW_GRID| Cutoff [a.u.]                                                    100.0
 PW_GRID| spherical cutoff:                                                   NO
 PW_GRID|   Bounds   1            -90      89                Points:         180
 PW_GRID|   Bounds   2            -90      89                Points:         180
 PW_GRID|   Bounds   3            -50      49                Points:         100
 PW_GRID| Volume element (a.u.^3)  0.8901E-02     Volume (a.u.^3)     28837.6984
 PW_GRID| Grid span                                                    FULLSPACE
 PW_GRID|   Distribution                         Average         Max         Min
 PW_GRID|   G-Vectors                           405000.0      405540      404640
 PW_GRID|   G-Rays                                2250.0        2253        2248
 PW_GRID|   Real Space Points                   405000.0      414000      396000

 PW_GRID| Information for grid number                                          4
 PW_GRID| Number of the reference grid                                         2
 PW_GRID| Grid distributed over                                     8 processors
 PW_GRID| Real space group dimensions                                     8    1
 PW_GRID| the grid is blocked:                                                NO
 PW_GRID| Cutoff [a.u.]                                                     33.3
 PW_GRID| spherical cutoff:                                                   NO
 PW_GRID|   Bounds   1            -48      47                Points:          96
 PW_GRID|   Bounds   2            -48      47                Points:          96
 PW_GRID|   Bounds   3            -30      29                Points:          60
 PW_GRID| Volume element (a.u.^3)  0.5215E-01     Volume (a.u.^3)     28837.6984
 PW_GRID| Grid span                                                    FULLSPACE
 PW_GRID|   Distribution                         Average         Max         Min
 PW_GRID|   G-Vectors                            69120.0       69408       68736
 PW_GRID|   G-Rays                                 720.0         723         716
 PW_GRID|   Real Space Points                    69120.0       69120       69120

 PW_GRID| Information for grid number                                          5
 PW_GRID| Number of the reference grid                                         2
 PW_GRID| Grid distributed over                                     8 processors
 PW_GRID| Real space group dimensions                                     8    1
 PW_GRID| the grid is blocked:                                                NO
 PW_GRID| Cutoff [a.u.]                                                     11.1
 PW_GRID| spherical cutoff:                                                   NO
 PW_GRID|   Bounds   1            -30      29                Points:          60
 PW_GRID|   Bounds   2            -30      29                Points:          60
 PW_GRID|   Bounds   3            -18      17                Points:          36
 PW_GRID| Volume element (a.u.^3)  0.2225         Volume (a.u.^3)     28837.6984
 PW_GRID| Grid span                                                    FULLSPACE
 PW_GRID|   Distribution                         Average         Max         Min
 PW_GRID|   G-Vectors                            16200.0       16320       16080
 PW_GRID|   G-Rays                                 270.0         272         268
 PW_GRID|   Real Space Points                    16200.0       17280       15120

 POISSON| Solver                                             MULTIPOLE (Bloechl)
 POISSON| Periodicity                                                       NONE

 RS_GRID| Information for grid number                                          2
 RS_GRID|   Bounds   1           -144     143                Points:         288
 RS_GRID|   Bounds   2           -144     143                Points:         288
 RS_GRID|   Bounds   3            -90      89                Points:         180
 RS_GRID| Real space distribution over                                  2 groups
 RS_GRID| Real space distribution along direction                              1
 RS_GRID| Border size                                                         30
 RS_GRID| Real space distribution over                                  4 groups
 RS_GRID| Real space distribution along direction                              2
 RS_GRID| Border size                                                         30
 RS_GRID|   Distribution                         Average         Max         Min
 RS_GRID|   Planes                                 204.0         204         204
 RS_GRID|   Distribution                         Average         Max         Min
 RS_GRID|   Planes                                 132.0         132         132

 RS_GRID| Information for grid number                                          3
 RS_GRID|   Bounds   1            -90      89                Points:         180
 RS_GRID|   Bounds   2            -90      89                Points:         180
 RS_GRID|   Bounds   3            -50      49                Points:         100
 RS_GRID| Real space fully replicated
 RS_GRID| Group size                                                           1

 RS_GRID| Information for grid number                                          4
 RS_GRID|   Bounds   1            -48      47                Points:          96
 RS_GRID|   Bounds   2            -48      47                Points:          96
 RS_GRID|   Bounds   3            -30      29                Points:          60
 RS_GRID| Real space fully replicated
 RS_GRID| Group size                                                           1

 RS_GRID| Information for grid number                                          5
 RS_GRID|   Bounds   1            -30      29                Points:          60
 RS_GRID|   Bounds   2            -30      29                Points:          60
 RS_GRID|   Bounds   3            -18      17                Points:          36
 RS_GRID| Real space fully replicated
 RS_GRID| Group size                                                           1

 *** WARNING in emd/rt_bse_linearized.F:131 :: Linearized RT-BSE is under ***
 *** active development. Make sure you understand the method and validate ***
 *** results before using it for production calculations.                 ***


 Extrapolation method: initial_guess

 Number of electrons:                                                        128
 Number of occupied orbitals:                                                 64
 Number of molecular orbitals:                                               164

 Number of orbital functions:                                                460
 Number of independent orbital functions:                                    460


 SCF WAVEFUNCTION OPTIMIZATION

  Step     Update method      Time    Convergence         Total energy    Change
  ------------------------------------------------------------------------------
  Decoupling Energy:                                              -0.0000273520
     1 NoMix/Diag. 0.40E+00    0.5     0.00000020      -168.6933874517 -1.69E+02
  Decoupling Energy:                                              -0.0000273519
     2 Broy./Diag. 0.40E+00    0.7     0.00000003      -168.6933879138 -4.62E-07

  *** SCF run converged in     2 steps ***


  Electronic density on regular grids:       -128.0000000000       -0.0000000000
  Core density on regular grids:              128.0000000000       -0.0000000000
  Total charge density on r-space grids:       -0.0000000000
  Total charge density g-space grids:          -0.0000000000

  Overlap energy of the core charge distribution:               0.00001137845253
  Self energy of the core charge distribution:               -395.94780529133618
  Core Hamiltonian energy:                                    125.99066840523481
  Hartree energy:                                             156.02503546197886
  Exchange-correlation energy:                                -54.76129786809617

  Total energy:                                              -168.69338791376612

 !-----------------------------------------------------------------------------!
                     Mulliken Population Analysis

 #  Atom  Element  Kind  Atomic population                           Net charge
       1     C        1          4.158074                             -0.158074
       2     C        1          4.069414                             -0.069414
       3     C        1          3.955035                              0.044965
       4     C        1          3.959669                              0.040331
       5     C        1          3.955035                              0.044965
       6     C        1          4.069414                             -0.069414
       7     C        1          4.158074                             -0.158074
       8     C        1          4.158074                             -0.158074
       9     C        1          4.243725                             -0.243725
      10     C        1          4.069414                             -0.069414
      11     C        1          3.955035                              0.044965
      12     C        1          3.959669                              0.040331
      13     C        1          3.955035                              0.044965
      14     C        1          4.069414                             -0.069414
      15     C        1          4.158074                             -0.158074
      16     C        1          4.243725                             -0.243725
      17     H        2          0.767576                              0.232424
      18     H        2          0.799520                              0.200480
      19     H        2          0.767576                              0.232424
      20     H        2          0.799520                              0.200480
      21     H        2          0.799520                              0.200480
      22     H        2          0.767576                              0.232424
      23     H        2          0.799520                              0.200480
      24     H        2          0.767576                              0.232424
      25     C        1          4.243725                             -0.243725
      26     C        1          4.243725                             -0.243725
      27     C        1          4.197973                             -0.197973
      28     C        1          4.042604                             -0.042604
      29     C        1          4.611048                             -0.611048
      30     C        1          4.042604                             -0.042604
      31     C        1          4.197973                             -0.197973
      32     C        1          4.197973                             -0.197973
      33     C        1          4.042604                             -0.042604
      34     C        1          4.611048                             -0.611048
      35     C        1          4.042604                             -0.042604
      36     C        1          4.197973                             -0.197973
      37     H        2          0.780943                              0.219057
      38     H        2          0.699777                              0.300223
      39     H        2          0.699777                              0.300223
      40     H        2          0.780943                              0.219057
      41     H        2          0.780943                              0.219057
      42     H        2          0.699777                              0.300223
      43     H        2          0.699777                              0.300223
      44     H        2          0.780943                              0.219057
 # Total charge                            128.000000                 -0.000000

 !-----------------------------------------------------------------------------!

 !-----------------------------------------------------------------------------!
                           Hirshfeld Charges

  #Atom  Element  Kind  Ref Charge     Population                    Net charge
      1       C      1       4.000          4.454                        -0.454
      2       C      1       4.000          3.996                         0.004
      3       C      1       4.000          4.008                        -0.008
      4       C      1       4.000          4.010                        -0.010
      5       C      1       4.000          4.008                        -0.008
      6       C      1       4.000          3.996                         0.004
      7       C      1       4.000          4.454                        -0.454
      8       C      1       4.000          4.454                        -0.454
      9       C      1       4.000          4.448                        -0.448
     10       C      1       4.000          3.996                         0.004
     11       C      1       4.000          4.008                        -0.008
     12       C      1       4.000          4.010                        -0.010
     13       C      1       4.000          4.008                        -0.008
     14       C      1       4.000          3.996                         0.004
     15       C      1       4.000          4.454                        -0.454
     16       C      1       4.000          4.448                        -0.448
     17       H      2       1.000          0.551                         0.449
     18       H      2       1.000          0.555                         0.445
     19       H      2       1.000          0.551                         0.449
     20       H      2       1.000          0.555                         0.445
     21       H      2       1.000          0.555                         0.445
     22       H      2       1.000          0.551                         0.449
     23       H      2       1.000          0.555                         0.445
     24       H      2       1.000          0.551                         0.449
     25       C      1       4.000          4.448                        -0.448
     26       C      1       4.000          4.448                        -0.448
     27       C      1       4.000          4.470                        -0.470
     28       C      1       4.000          4.008                        -0.008
     29       C      1       4.000          4.783                        -0.783
     30       C      1       4.000          4.008                        -0.008
     31       C      1       4.000          4.470                        -0.470
     32       C      1       4.000          4.470                        -0.470
     33       C      1       4.000          4.008                        -0.008
     34       C      1       4.000          4.783                        -0.783
     35       C      1       4.000          4.008                        -0.008
     36       C      1       4.000          4.470                        -0.470
     37       H      2       1.000          0.549                         0.451
     38       H      2       1.000          0.553                         0.447
     39       H      2       1.000          0.553                         0.447
     40       H      2       1.000          0.549                         0.451
     41       H      2       1.000          0.549                         0.451
     42       H      2       1.000          0.553                         0.447
     43       H      2       1.000          0.553                         0.447
     44       H      2       1.000          0.549                         0.451

  Total Charge                                                            0.043
 !-----------------------------------------------------------------------------!
  
 -------------------------------------------------------------------------------
 -                                                                             -
 -                          BANDSTRUCTURE CALCULATION                          -
 -                                                                             -
 -------------------------------------------------------------------------------
  
 Number of occupied molecular orbitals (MOs) = Number of occupied bands       64
 Number of unoccupied (= virtual) MOs = Number of unoccupied bands           396
 Number of Gaussian basis functions for MOs                                  460
  
 -------------------------------------------------------------------------------
 -                                                                             -
 -                                GW CALCULATION                               -
 -                                                                             -
 -------------------------------------------------------------------------------
  
 Input: Number of time/freq. points                                           30
 Input: ω_max for fitting Σ(iω) (eV)                                        10.0
 Input: Filter threshold for sparse tensor operations                    1.0E-10
 Input: Apply Hedin shift                                                      F
 Detected: Available memory per MPI process                             108.3 GB
 
 Input: RI-RS Tikhonov regularization                                   1.00E-08
 Input: AO grid hard cutoff radius                                        7.00 Å
 Input: MPI ranks per atom in Z_lP solve                                      -1
 Input: Keep sparsity in χ/G/W panels                                          T
 Input: GW flavour                                                          G0W0
 
 Input: RI-RS grid optimization activated                                      T
 Input: Element: C, number of points per atom:                                67
 Input: Element: H, number of points per atom:                                27
 Input: Cutoff radius for atomic clusters                                  3.0 Å
 Input: Maximum grid optimization iterations                                 200
 
 Cutoff radius for the truncated Coulomb operator in RI metric:            7.0 Å
 Regularization parameter of RI                                          0.0E+00
 Regularization parameter of minimax grids                               1.0E-06
  
 Number of auxiliary Gaussian basis functions for χ, ε, W                    920
  Decoupling Energy:                                              -0.0000273518
 
 SCF direct band gap (eV)                                                   2.52
 Max. SCF eigval diff. (eV)                                               246.25
 E-Range for minimax grid                                                  97.84
 Number of Padé parameters for analytic continuation:                         16
 
 RI-RS basis radii (Å):
     Kind  Elem     r_AO (Å)     r_RI (Å)
        1    C         9.5975        5.7974
        2    H        11.3560        5.9118
 
 Started RI-RS grid optimization
 RI-RS grid optimization completed, execution time:                      298.0 s
 Normalized 3C error:                                                    1.4E-06
 Maximum absolute 3C error:                                              1.3E-02
 Total grid points used for RI-RS:                                          2308
 
 RI-RS grid row-blocks of Φ_μ(r_l)                                           100
 RI-RS grid points per block (max)                                            32
 
 Percentage of non-zero matrix elements in Φ_μ(r_l)                      93.08 %
 
 RI-RS memory estimate per MPI process:
   Available memory per process (system)                               132.46 GB
   Required for Z_lP (dense upper bound; actual is sparser)              0.00 GB
   Required for χ, W, Σ panels (peak per panel step)                     0.02 GB
   Required for Z_lP solve peak (D_local+φ, worst-case atom)             0.06 GB
   Worst-case local-grid number of grid points:                             2308
   Worst-case memory D_local:                                            0.04 GB
 
 Started computing Z_lP
 Per-kind maximum RI-RS sphere cutoff (Å):
   Kind   cutoff (Å)
     C        12.7974
     H        12.9118
 
 Computed Z_lP (MPI rank 0) for atom          1 /  6,    Execution time    0.1 s
 Computed Z_lP (MPI rank 0) for atom          2 /  6,    Execution time    0.2 s
 Computed Z_lP (MPI rank 0) for atom          3 /  6,    Execution time    0.2 s
 Computed Z_lP (MPI rank 0) for atom          4 /  6,    Execution time    0.2 s
 Computed Z_lP (MPI rank 0) for atom          5 /  6,    Execution time    0.1 s
 Computed Z_lP (MPI rank 0) for atom          6 /  6,    Execution time    0.1 s
 Computed Z_lP (all MPI ranks) for all atoms,            Execution time    0.8 s

 Memory per MPI process after computing Z_lP:
 Available memory per MPI process                              132.4 GB
 Used memory per MPI process                                     2.5 GB
 Number of batches for χ, Σ matrices                                           1
 
 Percentage of non-zero matrix elements in Z_lP                         100.00 %
 Percentage of non-zero matrix elements in G_ll', χ_ll', W_ll'          100.00 %
 Percentage of non-zero matrix elements in χ_PQ for time point 1        100.00 %
 
 Computed χ(iτ,k=0) for time point            1 / 30,    Execution time    0.0 s
 Computed χ(iτ,k=0) for time point            2 / 30,    Execution time    0.0 s
 Computed χ(iτ,k=0) for time point            3 / 30,    Execution time    0.0 s
 Computed χ(iτ,k=0) for time point            4 / 30,    Execution time    0.0 s
 Computed χ(iτ,k=0) for time point            5 / 30,    Execution time    0.0 s
 Computed χ(iτ,k=0) for time point            6 / 30,    Execution time    0.0 s
 Computed χ(iτ,k=0) for time point            7 / 30,    Execution time    0.0 s
 Computed χ(iτ,k=0) for time point            8 / 30,    Execution time    0.0 s
 Computed χ(iτ,k=0) for time point            9 / 30,    Execution time    0.0 s
 Computed χ(iτ,k=0) for time point           10 / 30,    Execution time    0.0 s
 Computed χ(iτ,k=0) for time point           11 / 30,    Execution time    0.0 s
 Computed χ(iτ,k=0) for time point           12 / 30,    Execution time    0.0 s
 Computed χ(iτ,k=0) for time point           13 / 30,    Execution time    0.0 s
 Computed χ(iτ,k=0) for time point           14 / 30,    Execution time    0.0 s
 Computed χ(iτ,k=0) for time point           15 / 30,    Execution time    0.0 s
 Computed χ(iτ,k=0) for time point           16 / 30,    Execution time    0.0 s
 Computed χ(iτ,k=0) for time point           17 / 30,    Execution time    0.0 s
 Computed χ(iτ,k=0) for time point           18 / 30,    Execution time    0.0 s
 Computed χ(iτ,k=0) for time point           19 / 30,    Execution time    0.0 s
 Computed χ(iτ,k=0) for time point           20 / 30,    Execution time    0.0 s
 Computed χ(iτ,k=0) for time point           21 / 30,    Execution time    0.0 s
 Computed χ(iτ,k=0) for time point           22 / 30,    Execution time    0.0 s
 Computed χ(iτ,k=0) for time point           23 / 30,    Execution time    0.0 s
 Computed χ(iτ,k=0) for time point           24 / 30,    Execution time    0.0 s
 Computed χ(iτ,k=0) for time point           25 / 30,    Execution time    0.0 s
 Computed χ(iτ,k=0) for time point           26 / 30,    Execution time    0.0 s
 Computed χ(iτ,k=0) for time point           27 / 30,    Execution time    0.0 s
 Computed χ(iτ,k=0) for time point           28 / 30,    Execution time    0.0 s
 Computed χ(iτ,k=0) for time point           29 / 30,    Execution time    0.0 s
 Computed χ(iτ,k=0) for time point           30 / 30,    Execution time    0.0 s
 
 Computed W(iτ),                                         Execution time    1.3 s
 Computed W(0),                                          Execution time    0.0 s
 
 Computed Σ^x(k=0),                                      Execution time    0.1 s
 
 Computed Σ^c(iτ) for time point              1 / 30,    Execution time    0.1 s
 Computed Σ^c(iτ) for time point              2 / 30,    Execution time    0.1 s
 Computed Σ^c(iτ) for time point              3 / 30,    Execution time    0.1 s
 Computed Σ^c(iτ) for time point              4 / 30,    Execution time    0.1 s
 Computed Σ^c(iτ) for time point              5 / 30,    Execution time    0.1 s
 Computed Σ^c(iτ) for time point              6 / 30,    Execution time    0.1 s
 Computed Σ^c(iτ) for time point              7 / 30,    Execution time    0.1 s
 Computed Σ^c(iτ) for time point              8 / 30,    Execution time    0.1 s
 Computed Σ^c(iτ) for time point              9 / 30,    Execution time    0.1 s
 Computed Σ^c(iτ) for time point             10 / 30,    Execution time    0.1 s
 Computed Σ^c(iτ) for time point             11 / 30,    Execution time    0.1 s
 Computed Σ^c(iτ) for time point             12 / 30,    Execution time    0.1 s
 Computed Σ^c(iτ) for time point             13 / 30,    Execution time    0.1 s
 Computed Σ^c(iτ) for time point             14 / 30,    Execution time    0.1 s
 Computed Σ^c(iτ) for time point             15 / 30,    Execution time    0.1 s
 Computed Σ^c(iτ) for time point             16 / 30,    Execution time    0.1 s
 Computed Σ^c(iτ) for time point             17 / 30,    Execution time    0.1 s
 Computed Σ^c(iτ) for time point             18 / 30,    Execution time    0.1 s
 Computed Σ^c(iτ) for time point             19 / 30,    Execution time    0.1 s
 Computed Σ^c(iτ) for time point             20 / 30,    Execution time    0.1 s
 Computed Σ^c(iτ) for time point             21 / 30,    Execution time    0.1 s
 Computed Σ^c(iτ) for time point             22 / 30,    Execution time    0.1 s
 Computed Σ^c(iτ) for time point             23 / 30,    Execution time    0.1 s
 Computed Σ^c(iτ) for time point             24 / 30,    Execution time    0.1 s
 Computed Σ^c(iτ) for time point             25 / 30,    Execution time    0.1 s
 Computed Σ^c(iτ) for time point             26 / 30,    Execution time    0.0 s
 Computed Σ^c(iτ) for time point             27 / 30,    Execution time    0.0 s
 Computed Σ^c(iτ) for time point             28 / 30,    Execution time    0.0 s
 Computed Σ^c(iτ) for time point             29 / 30,    Execution time    0.0 s
 Computed Σ^c(iτ) for time point             30 / 30,    Execution time    0.0 s
 
 SCF valence band maximum (eV):                                           -4.710
 SCF conduction band minimum (eV):                                        -2.193
 SCF indirect band gap (eV):                                               2.517
 SCF direct band gap (eV):                                                 2.517
 
 G0W0 valence band maximum (eV):                                          -5.836
 G0W0 conduction band minimum (eV):                                       -0.155
 G0W0 indirect band gap (eV):                                              5.681
 G0W0 direct band gap (eV):                                                5.681
 
 Hartree-Fock with SCF orbitals valence band maximum (eV):                -6.081
 Hartree-Fock with SCF orbitals conduction band minimum (eV)               1.968
 Hartree-Fock with SCF orbitals indirect band gap (eV):                    8.049
 Hartree-Fock with SCF orbitals direct band gap (eV):                      8.049

 ENERGY| Total FORCE_EVAL ( QS ) energy [hartree]           -168.693387913766117

 *** HINT in emd/rt_bse_linearized.F:440 :: ENFORCE_MAX_DT enabled. ***
 *** Resetting TIMESTEP to          70.0035 as and STEPS to 2857.   ***

 
 /-----------------------------------------------------------------------------\
 |                                                                             |
 |              Linearized Real Time Bethe-Salpeter Propagation                |
 |                                                                             |
 \-----------------------------------------------------------------------------/
 
 Apply delta pulse                                                             T

 Use Tamm-Dancoff                                                              T
 TDA first-peak shift active                                                   F

 Estimated maximum timestep within stability region [as]:                70.0115
 Applied timestep [as]:                                                  70.0035
 Number of propagation steps:                                               2857
 Total propagation time [as]:                                        200000.0000
 Estimated FFT frequency resolution without interpolation [eV]:         0.020678
 Nyquist frequency [eV]:                                               29.539004
 Estimated maximum oscillation frequency (gap-based) [eV]:             26.591409
 GW flavor for computing GW eigenvalues used in RT-BSE:                     G0W0
 Active-window occupied energy cutoff [eV]:                               10.000
 Active-window virtual energy cutoff [eV]:                                10.000
 First active occupied MO index:                                              21
 Last active virtual MO index:                                               158
 Number of active MOs:                                                       138
 Spin 1 first active MO, E - E_HOMO (KS) [eV]:                            -9.310
 Spin 1 last active MO, E - E_LUMO (KS) [eV]:                              9.996
 Spin 1 first active MO, E - E_HOMO (QP) [eV]:                           -10.166
 Spin 1 last active MO, E - E_LUMO (QP) [eV]:                              9.944
 Precomputed RT-BSE RI-RS V_aux kernel,                  Execution time    0.0 s
 
 W0CUT| Cutoff radius, negative = off [angstrom]                         50.0000
 W0CUT| Retained block fraction                                         1.000000
 W0CUT| Retained Frobenius norm                                   1.96464522E+05
 Precomputed RT-BSE RI-RS W0_grid kernel,                Execution time    0.0 s
 
 RTBSE| Applying delta pulse
 RTBSE| Delta pulse elements (a.u.) :   -0.0000E+000  -0.1000E-002  -0.0000E+000
 RTBSE| Metric difference after delta kick                       0.30071450E-002
 RTBSE| Estimated runtime for propagation [s]                            711.322
 RTBSE|
 RTBSE| Simulation step   Step time [s]                          Electron number
 RTBSE|               0           0.249                               0.880E+002
 RTBSE|               1           0.250                               0.880E+002
 RTBSE|               2           0.248                               0.880E+002
 RTBSE|               3           0.247                               0.880E+002
 RTBSE|               4           0.247                               0.880E+002
 RTBSE|               5           0.248                               0.880E+002
 RTBSE|               6           0.247                               0.880E+002
 RTBSE|               7           0.247                               0.880E+002
 RTBSE|               8           0.248                               0.880E+002
 RTBSE|               9           0.248                               0.880E+002
 RTBSE|              10           0.247                               0.880E+002
 RTBSE|              11           0.247                               0.880E+002
 RTBSE|              12           0.246                               0.880E+002
 RTBSE|              13           0.247                               0.880E+002
 RTBSE|              14           0.248                               0.880E+002
 RTBSE|              15           0.247                               0.880E+002
 RTBSE|              16           0.248                               0.880E+002
 RTBSE|              17           0.246                               0.880E+002
 RTBSE|              18           0.248                               0.880E+002
 RTBSE|              19           0.246                               0.880E+002
 RTBSE|              20           0.247                               0.880E+002
 RTBSE|              21           0.248                               0.880E+002
 RTBSE|              22           0.248                               0.880E+002
 RTBSE|              23           0.247                               0.880E+002
 RTBSE|              24           0.246                               0.880E+002
 RTBSE|              25           0.247                               0.880E+002
 RTBSE|              26           0.247                               0.880E+002
 RTBSE|              27           0.248                               0.880E+002
 RTBSE|              28           0.246                               0.880E+002
 RTBSE|              29           0.247                               0.880E+002
 RTBSE|              30           0.246                               0.880E+002
 RTBSE|              31           0.247                               0.880E+002
 RTBSE|              32           0.246                               0.880E+002
 RTBSE|              33           0.247                               0.880E+002
 RTBSE|              34           0.254                               0.880E+002
 RTBSE|              35           0.247                               0.880E+002
 RTBSE|              36           0.247                               0.880E+002
 RTBSE|              37           0.246                               0.880E+002
 RTBSE|              38           0.247                               0.880E+002
 RTBSE|              39           0.248                               0.880E+002
 RTBSE|              40           0.246                               0.880E+002
 RTBSE|              41           0.249                               0.880E+002
 RTBSE|              42           0.247                               0.880E+002
 RTBSE|              43           0.247                               0.880E+002
 RTBSE|              44           0.246                               0.880E+002
 RTBSE|              45           0.246                               0.880E+002
 RTBSE|              46           0.247                               0.880E+002
 RTBSE|              47           0.248                               0.880E+002
 RTBSE|              48           0.246                               0.880E+002
 RTBSE|              49           0.247                               0.880E+002
 RTBSE|              50           0.247                               0.880E+002
 RTBSE|              51           0.247                               0.880E+002
 RTBSE|              52           0.256                               0.880E+002
 RTBSE|              53           0.270                               0.880E+002
 RTBSE|              54           0.247                               0.880E+002
 RTBSE|              55           0.246                               0.880E+002
 RTBSE|              56           0.247                               0.880E+002
 RTBSE|              57           0.321                               0.880E+002
 RTBSE|              58           0.247                               0.880E+002
 RTBSE|              59           0.249                               0.880E+002
 RTBSE|              60           0.247                               0.880E+002
 RTBSE|              61           0.267                               0.880E+002
 RTBSE|              62           0.247                               0.880E+002
 RTBSE|              63           0.248                               0.880E+002
 RTBSE|              64           0.246                               0.880E+002
 RTBSE|              65           0.249                               0.880E+002
 RTBSE|              66           0.246                               0.880E+002
 RTBSE|              67           0.247                               0.880E+002
 RTBSE|              68           0.248                               0.880E+002
 RTBSE|              69           0.283                               0.880E+002
 RTBSE|              70           0.247                               0.880E+002
 RTBSE|              71           0.247                               0.880E+002
 RTBSE|              72           0.248                               0.880E+002
 RTBSE|              73           0.247                               0.880E+002
 RTBSE|              74           0.246                               0.880E+002
 RTBSE|              75           0.254                               0.880E+002
 RTBSE|              76           0.247                               0.880E+002
 RTBSE|              77           0.246                               0.880E+002
 RTBSE|              78           0.246                               0.880E+002
 RTBSE|              79           0.247                               0.880E+002
 RTBSE|              80           0.247                               0.880E+002
 RTBSE|              81           0.247                               0.880E+002
 RTBSE|              82           0.247                               0.880E+002
 RTBSE|              83           0.248                               0.880E+002
 RTBSE|              84           0.246                               0.880E+002
 RTBSE|              85           0.247                               0.880E+002
 RTBSE|              86           0.247                               0.880E+002
 RTBSE|              87           0.247                               0.880E+002
 RTBSE|              88           0.247                               0.880E+002
 RTBSE|              89           0.247                               0.880E+002
 RTBSE|              90           0.247                               0.880E+002
 RTBSE|              91           0.247                               0.880E+002
 RTBSE|              92           0.246                               0.880E+002
 RTBSE|              93           0.247                               0.880E+002
 RTBSE|              94           0.247                               0.880E+002
 RTBSE|              95           0.246                               0.880E+002
 RTBSE|              96           0.246                               0.880E+002
 RTBSE|              97           0.246                               0.880E+002
 RTBSE|              98           0.247                               0.880E+002
 RTBSE|              99           0.248                               0.880E+002
 RTBSE|             100           0.246                               0.880E+002
 RTBSE|             101           0.247                               0.880E+002
 RTBSE|             102           0.247                               0.880E+002
 RTBSE|             103           0.248                               0.880E+002
 RTBSE|             104           0.246                               0.880E+002
 RTBSE|             105           0.247                               0.880E+002
 RTBSE|             106           0.247                               0.880E+002
 RTBSE|             107           0.247                               0.880E+002
 RTBSE|             108           0.247                               0.880E+002
 RTBSE|             109           0.247                               0.880E+002
 RTBSE|             110           0.247                               0.880E+002
 RTBSE|             111           0.246                               0.880E+002
 RTBSE|             112           0.247                               0.880E+002
 RTBSE|             113           0.247                               0.880E+002
 RTBSE|             114           0.247                               0.880E+002
 RTBSE|             115           0.247                               0.880E+002
 RTBSE|             116           0.252                               0.880E+002
 RTBSE|             117           0.247                               0.880E+002
 RTBSE|             118           0.247                               0.880E+002
 RTBSE|             119           0.246                               0.880E+002
 RTBSE|             120           0.249                               0.880E+002
 RTBSE|             121           0.246                               0.880E+002
 RTBSE|             122           0.249                               0.880E+002
 RTBSE|             123           0.247                               0.880E+002
 RTBSE|             124           0.247                               0.880E+002
 RTBSE|             125           0.247                               0.880E+002
 RTBSE|             126           0.247                               0.880E+002
 RTBSE|             127           0.247                               0.880E+002
 RTBSE|             128           0.247                               0.880E+002
 RTBSE|             129           0.248                               0.880E+002
 RTBSE|             130           0.247                               0.880E+002
 RTBSE|             131           0.247                               0.880E+002
 RTBSE|             132           0.247                               0.880E+002
 RTBSE|             133           0.247                               0.880E+002
 RTBSE|             134           0.247                               0.880E+002
 RTBSE|             135           0.246                               0.880E+002
 RTBSE|             136           0.246                               0.880E+002
 RTBSE|             137           0.246                               0.880E+002
 RTBSE|             138           0.247                               0.880E+002
 RTBSE|             139           0.247                               0.880E+002
 RTBSE|             140           0.247                               0.880E+002
 RTBSE|             141           0.246                               0.880E+002
 RTBSE|             142           0.248                               0.880E+002
 RTBSE|             143           0.247                               0.880E+002
 RTBSE|             144           0.247                               0.880E+002
 RTBSE|             145           0.248                               0.880E+002
 RTBSE|             146           0.249                               0.880E+002
 RTBSE|             147           0.247                               0.880E+002
 RTBSE|             148           0.248                               0.880E+002
 RTBSE|             149           0.247                               0.880E+002
 RTBSE|             150           0.247                               0.880E+002
 RTBSE|             151           0.246                               0.880E+002
 RTBSE|             152           0.247                               0.880E+002
 RTBSE|             153           0.302                               0.880E+002
 RTBSE|             154           0.247                               0.880E+002
 RTBSE|             155           0.247                               0.880E+002
 RTBSE|             156           0.246                               0.880E+002
 RTBSE|             157           0.252                               0.880E+002
 RTBSE|             158           0.247                               0.880E+002
 RTBSE|             159           0.247                               0.880E+002
 RTBSE|             160           0.247                               0.880E+002
 RTBSE|             161           0.250                               0.880E+002
 RTBSE|             162           0.246                               0.880E+002
 RTBSE|             163           0.247                               0.880E+002
 RTBSE|             164           0.246                               0.880E+002
 RTBSE|             165           0.247                               0.880E+002
 RTBSE|             166           0.246                               0.880E+002
 RTBSE|             167           0.248                               0.880E+002
 RTBSE|             168           0.247                               0.880E+002
 RTBSE|             169           0.248                               0.880E+002
 RTBSE|             170           0.246                               0.880E+002
 RTBSE|             171           0.247                               0.880E+002
 RTBSE|             172           0.276                               0.880E+002
 RTBSE|             173           0.246                               0.880E+002
 RTBSE|             174           0.246                               0.880E+002
 RTBSE|             175           0.246                               0.880E+002
 RTBSE|             176           0.329                               0.880E+002
 RTBSE|             177           0.247                               0.880E+002
 RTBSE|             178           0.247                               0.880E+002
 RTBSE|             179           0.246                               0.880E+002
 RTBSE|             180           0.267                               0.880E+002
 RTBSE|             181           0.246                               0.880E+002
 RTBSE|             182           0.247                               0.880E+002
 RTBSE|             183           0.246                               0.880E+002
 RTBSE|             184           0.250                               0.880E+002
 RTBSE|             185           0.248                               0.880E+002
 RTBSE|             186           0.246                               0.880E+002
 RTBSE|             187           0.249                               0.880E+002
 RTBSE|             188           0.275                               0.880E+002
 RTBSE|             189           0.249                               0.880E+002
 RTBSE|             190           0.247                               0.880E+002
 RTBSE|             191           0.247                               0.880E+002
 RTBSE|             192           0.247                               0.880E+002
 RTBSE|             193           0.247                               0.880E+002
 RTBSE|             194           0.247                               0.880E+002
 RTBSE|             195           0.246                               0.880E+002
 RTBSE|             196           0.246                               0.880E+002
 RTBSE|             197           0.246                               0.880E+002
 RTBSE|             198           0.253                               0.880E+002
 RTBSE|             199           0.248                               0.880E+002
 RTBSE|             200           0.247                               0.880E+002
 RTBSE|             201           0.252                               0.880E+002
 RTBSE|             202           0.247                               0.880E+002
 RTBSE|             203           0.247                               0.880E+002
 RTBSE|             204           0.248                               0.880E+002
 RTBSE|             205           0.247                               0.880E+002
 RTBSE|             206           0.246                               0.880E+002
 RTBSE|             207           0.247                               0.880E+002
 RTBSE|             208           0.246                               0.880E+002
 RTBSE|             209           0.248                               0.880E+002
 RTBSE|             210           0.247                               0.880E+002
 RTBSE|             211           0.247                               0.880E+002
 RTBSE|             212           0.246                               0.880E+002
 RTBSE|             213           0.247                               0.880E+002
 RTBSE|             214           0.246                               0.880E+002
 RTBSE|             215           0.246                               0.880E+002
 RTBSE|             216           0.246                               0.880E+002
 RTBSE|             217           0.247                               0.880E+002
 RTBSE|             218           0.246                               0.880E+002
 RTBSE|             219           0.246                               0.880E+002
 RTBSE|             220           0.246                               0.880E+002
 RTBSE|             221           0.247                               0.880E+002
 RTBSE|             222           0.247                               0.880E+002
 RTBSE|             223           0.246                               0.880E+002
 RTBSE|             224           0.247                               0.880E+002
 RTBSE|             225           0.248                               0.880E+002
 RTBSE|             226           0.246                               0.880E+002
 RTBSE|             227           0.248                               0.880E+002
 RTBSE|             228           0.246                               0.880E+002
 RTBSE|             229           0.248                               0.880E+002
 RTBSE|             230           0.247                               0.880E+002
 RTBSE|             231           0.247                               0.880E+002
 RTBSE|             232           0.248                               0.880E+002
 RTBSE|             233           0.246                               0.880E+002
 RTBSE|             234           0.248                               0.880E+002
 RTBSE|             235           0.246                               0.880E+002
 RTBSE|             236           0.247                               0.880E+002
 RTBSE|             237           0.246                               0.880E+002
 RTBSE|             238           0.246                               0.880E+002
 RTBSE|             239           0.255                               0.880E+002
 RTBSE|             240           0.247                               0.880E+002
 RTBSE|             241           0.248                               0.880E+002
 RTBSE|             242           0.249                               0.880E+002
 RTBSE|             243           0.246                               0.880E+002
 RTBSE|             244           0.246                               0.880E+002
 RTBSE|             245           0.247                               0.880E+002
 RTBSE|             246           0.247                               0.880E+002
 RTBSE|             247           0.247                               0.880E+002
 RTBSE|             248           0.248                               0.880E+002
 RTBSE|             249           0.246                               0.880E+002
 RTBSE|             250           0.247                               0.880E+002
 RTBSE|             251           0.246                               0.880E+002
 RTBSE|             252           0.249                               0.880E+002
 RTBSE|             253           0.246                               0.880E+002
 RTBSE|             254           0.247                               0.880E+002
 RTBSE|             255           0.246                               0.880E+002
 RTBSE|             256           0.247                               0.880E+002
 RTBSE|             257           0.246                               0.880E+002
 RTBSE|             258           0.246                               0.880E+002
 RTBSE|             259           0.247                               0.880E+002
 RTBSE|             260           0.246                               0.880E+002
 RTBSE|             261           0.247                               0.880E+002
 RTBSE|             262           0.247                               0.880E+002
 RTBSE|             263           0.247                               0.880E+002
 RTBSE|             264           0.246                               0.880E+002
 RTBSE|             265           0.247                               0.880E+002
 RTBSE|             266           0.247                               0.880E+002
 RTBSE|             267           0.246                               0.880E+002
 RTBSE|             268           0.247                               0.880E+002
 RTBSE|             269           0.247                               0.880E+002
 RTBSE|             270           0.248                               0.880E+002
 RTBSE|             271           0.247                               0.880E+002
 RTBSE|             272           0.247                               0.880E+002
 RTBSE|             273           0.247                               0.880E+002
 RTBSE|             274           0.249                               0.880E+002
 RTBSE|             275           0.247                               0.880E+002
 RTBSE|             276           0.247                               0.880E+002
 RTBSE|             277           0.248                               0.880E+002
 RTBSE|             278           0.247                               0.880E+002
 RTBSE|             279           0.247                               0.880E+002
 RTBSE|             280           0.247                               0.880E+002
 RTBSE|             281           0.254                               0.880E+002
 RTBSE|             282           0.248                               0.880E+002
 RTBSE|             283           0.251                               0.880E+002
 RTBSE|             284           0.247                               0.880E+002
 RTBSE|             285           0.247                               0.880E+002
 RTBSE|             286           0.247                               0.880E+002
 RTBSE|             287           0.246                               0.880E+002
 RTBSE|             288           0.246                               0.880E+002
 RTBSE|             289           0.248                               0.880E+002
 RTBSE|             290           0.246                               0.880E+002
 RTBSE|             291           0.280                               0.880E+002
 RTBSE|             292           0.247                               0.880E+002
 RTBSE|             293           0.248                               0.880E+002
 RTBSE|             294           0.247                               0.880E+002
 RTBSE|             295           0.336                               0.880E+002
 RTBSE|             296           0.247                               0.880E+002
 RTBSE|             297           0.247                               0.880E+002
 RTBSE|             298           0.247                               0.880E+002
 RTBSE|             299           0.267                               0.880E+002
 RTBSE|             300           0.247                               0.880E+002
 RTBSE|             301           0.247                               0.880E+002
 RTBSE|             302           0.248                               0.880E+002
 RTBSE|             303           0.248                               0.880E+002
 RTBSE|             304           0.246                               0.880E+002
 RTBSE|             305           0.247                               0.880E+002
 RTBSE|             306           0.247                               0.880E+002
 RTBSE|             307           0.285                               0.880E+002
 RTBSE|             308           0.247                               0.880E+002
 RTBSE|             309           0.247                               0.880E+002
 RTBSE|             310           0.247                               0.880E+002
 RTBSE|             311           0.248                               0.880E+002
 RTBSE|             312           0.246                               0.880E+002
 RTBSE|             313           0.247                               0.880E+002
 RTBSE|             314           0.246                               0.880E+002
 RTBSE|             315           0.247                               0.880E+002
 RTBSE|             316           0.246                               0.880E+002
 RTBSE|             317           0.248                               0.880E+002
 RTBSE|             318           0.247                               0.880E+002
 RTBSE|             319           0.247                               0.880E+002
 RTBSE|             320           0.247                               0.880E+002
 RTBSE|             321           0.252                               0.880E+002
 RTBSE|             322           0.249                               0.880E+002
 RTBSE|             323           0.252                               0.880E+002
 RTBSE|             324           0.247                               0.880E+002
 RTBSE|             325           0.247                               0.880E+002
 RTBSE|             326           0.245                               0.880E+002
 RTBSE|             327           0.247                               0.880E+002
 RTBSE|             328           0.246                               0.880E+002
 RTBSE|             329           0.246                               0.880E+002
 RTBSE|             330           0.246                               0.880E+002
 RTBSE|             331           0.246                               0.880E+002
 RTBSE|             332           0.247                               0.880E+002
 RTBSE|             333           0.247                               0.880E+002
 RTBSE|             334           0.247                               0.880E+002
 RTBSE|             335           0.246                               0.880E+002
 RTBSE|             336           0.246                               0.880E+002
 RTBSE|             337           0.247                               0.880E+002
 RTBSE|             338           0.247                               0.880E+002
 RTBSE|             339           0.248                               0.880E+002
 RTBSE|             340           0.247                               0.880E+002
 RTBSE|             341           0.246                               0.880E+002
 RTBSE|             342           0.246                               0.880E+002
 RTBSE|             343           0.247                               0.880E+002
 RTBSE|             344           0.247                               0.880E+002
 RTBSE|             345           0.247                               0.880E+002
 RTBSE|             346           0.247                               0.880E+002
 RTBSE|             347           0.247                               0.880E+002
 RTBSE|             348           0.247                               0.880E+002
 RTBSE|             349           0.247                               0.880E+002
 RTBSE|             350           0.247                               0.880E+002
 RTBSE|             351           0.247                               0.880E+002
 RTBSE|             352           0.247                               0.880E+002
 RTBSE|             353           0.247                               0.880E+002
 RTBSE|             354           0.248                               0.880E+002
 RTBSE|             355           0.247                               0.880E+002
 RTBSE|             356           0.247                               0.880E+002
 RTBSE|             357           0.247                               0.880E+002
 RTBSE|             358           0.248                               0.880E+002
 RTBSE|             359           0.246                               0.880E+002
 RTBSE|             360           0.248                               0.880E+002
 RTBSE|             361           0.247                               0.880E+002
 RTBSE|             362           0.246                               0.880E+002
 RTBSE|             363           0.255                               0.880E+002
 RTBSE|             364           0.252                               0.880E+002
 RTBSE|             365           0.246                               0.880E+002
 RTBSE|             366           0.247                               0.880E+002
 RTBSE|             367           0.247                               0.880E+002
 RTBSE|             368           0.246                               0.880E+002
 RTBSE|             369           0.247                               0.880E+002
 RTBSE|             370           0.247                               0.880E+002
 RTBSE|             371           0.247                               0.880E+002
 RTBSE|             372           0.247                               0.880E+002
 RTBSE|             373           0.246                               0.880E+002
 RTBSE|             374           0.248                               0.880E+002
 RTBSE|             375           0.246                               0.880E+002
 RTBSE|             376           0.249                               0.880E+002
 RTBSE|             377           0.247                               0.880E+002
 RTBSE|             378           0.248                               0.880E+002
 RTBSE|             379           0.247                               0.880E+002
 RTBSE|             380           0.248                               0.880E+002
 RTBSE|             381           0.248                               0.880E+002
 RTBSE|             382           0.247                               0.880E+002
 RTBSE|             383           0.247                               0.880E+002
 RTBSE|             384           0.247                               0.880E+002
 RTBSE|             385           0.247                               0.880E+002
 RTBSE|             386           0.246                               0.880E+002
 RTBSE|             387           0.246                               0.880E+002
 RTBSE|             388           0.246                               0.880E+002
 RTBSE|             389           0.246                               0.880E+002
 RTBSE|             390           0.247                               0.880E+002
 RTBSE|             391           0.247                               0.880E+002
 RTBSE|             392           0.302                               0.880E+002
 RTBSE|             393           0.247                               0.880E+002
 RTBSE|             394           0.247                               0.880E+002
 RTBSE|             395           0.246                               0.880E+002
 RTBSE|             396           0.248                               0.880E+002
 RTBSE|             397           0.247                               0.880E+002
 RTBSE|             398           0.249                               0.880E+002
 RTBSE|             399           0.247                               0.880E+002
 RTBSE|             400           0.247                               0.880E+002
 RTBSE|             401           0.246                               0.880E+002
 RTBSE|             402           0.248                               0.880E+002
 RTBSE|             403           0.247                               0.880E+002
 RTBSE|             404           0.257                               0.880E+002
 RTBSE|             405           0.248                               0.880E+002
 RTBSE|             406           0.246                               0.880E+002
 RTBSE|             407           0.246                               0.880E+002
 RTBSE|             408           0.247                               0.880E+002
 RTBSE|             409           0.246                               0.880E+002
 RTBSE|             410           0.275                               0.880E+002
 RTBSE|             411           0.247                               0.880E+002
 RTBSE|             412           0.248                               0.880E+002
 RTBSE|             413           0.247                               0.880E+002
 RTBSE|             414           0.327                               0.880E+002
 RTBSE|             415           0.247                               0.880E+002
 RTBSE|             416           0.246                               0.880E+002
 RTBSE|             417           0.247                               0.880E+002
 RTBSE|             418           0.266                               0.880E+002
 RTBSE|             419           0.247                               0.880E+002
 RTBSE|             420           0.248                               0.880E+002
 RTBSE|             421           0.246                               0.880E+002
 RTBSE|             422           0.249                               0.880E+002
 RTBSE|             423           0.246                               0.880E+002
 RTBSE|             424           0.248                               0.880E+002
 RTBSE|             425           0.247                               0.880E+002
 RTBSE|             426           0.281                               0.880E+002
 RTBSE|             427           0.247                               0.880E+002
 RTBSE|             428           0.248                               0.880E+002
 RTBSE|             429           0.246                               0.880E+002
 RTBSE|             430           0.246                               0.880E+002
 RTBSE|             431           0.246                               0.880E+002
 RTBSE|             432           0.247                               0.880E+002
 RTBSE|             433           0.246                               0.880E+002
 RTBSE|             434           0.247                               0.880E+002
 RTBSE|             435           0.248                               0.880E+002
 RTBSE|             436           0.247                               0.880E+002
 RTBSE|             437           0.246                               0.880E+002
 RTBSE|             438           0.247                               0.880E+002
 RTBSE|             439           0.246                               0.880E+002
 RTBSE|             440           0.246                               0.880E+002
 RTBSE|             441           0.248                               0.880E+002
 RTBSE|             442           0.247                               0.880E+002
 RTBSE|             443           0.249                               0.880E+002
 RTBSE|             444           0.246                               0.880E+002
 RTBSE|             445           0.257                               0.880E+002
 RTBSE|             446           0.248                               0.880E+002
 RTBSE|             447           0.247                               0.880E+002
 RTBSE|             448           0.247                               0.880E+002
 RTBSE|             449           0.247                               0.880E+002
 RTBSE|             450           0.247                               0.880E+002
 RTBSE|             451           0.246                               0.880E+002
 RTBSE|             452           0.247                               0.880E+002
 RTBSE|             453           0.246                               0.880E+002
 RTBSE|             454           0.246                               0.880E+002
 RTBSE|             455           0.248                               0.880E+002
 RTBSE|             456           0.247                               0.880E+002
 RTBSE|             457           0.246                               0.880E+002
 RTBSE|             458           0.246                               0.880E+002
 RTBSE|             459           0.248                               0.880E+002
 RTBSE|             460           0.247                               0.880E+002
 RTBSE|             461           0.248                               0.880E+002
 RTBSE|             462           0.246                               0.880E+002
 RTBSE|             463           0.249                               0.880E+002
 RTBSE|             464           0.247                               0.880E+002
 RTBSE|             465           0.248                               0.880E+002
 RTBSE|             466           0.247                               0.880E+002
 RTBSE|             467           0.248                               0.880E+002
 RTBSE|             468           0.247                               0.880E+002
 RTBSE|             469           0.246                               0.880E+002
 RTBSE|             470           0.246                               0.880E+002
 RTBSE|             471           0.247                               0.880E+002
 RTBSE|             472           0.246                               0.880E+002
 RTBSE|             473           0.248                               0.880E+002
 RTBSE|             474           0.247                               0.880E+002
 RTBSE|             475           0.246                               0.880E+002
 RTBSE|             476           0.247                               0.880E+002
 RTBSE|             477           0.247                               0.880E+002
 RTBSE|             478           0.248                               0.880E+002
 RTBSE|             479           0.247                               0.880E+002
 RTBSE|             480           0.248                               0.880E+002
 RTBSE|             481           0.247                               0.880E+002
 RTBSE|             482           0.248                               0.880E+002
 RTBSE|             483           0.247                               0.880E+002
 RTBSE|             484           0.248                               0.880E+002
 RTBSE|             485           0.247                               0.880E+002
 RTBSE|             486           0.256                               0.880E+002
 RTBSE|             487           0.246                               0.880E+002
 RTBSE|             488           0.246                               0.880E+002
 RTBSE|             489           0.246                               0.880E+002
 RTBSE|             490           0.246                               0.880E+002
 RTBSE|             491           0.247                               0.880E+002
 RTBSE|             492           0.246                               0.880E+002
 RTBSE|             493           0.246                               0.880E+002
 RTBSE|             494           0.246                               0.880E+002
 RTBSE|             495           0.246                               0.880E+002
 RTBSE|             496           0.246                               0.880E+002
 RTBSE|             497           0.247                               0.880E+002
 RTBSE|             498           0.247                               0.880E+002
 RTBSE|             499           0.246                               0.880E+002
 RTBSE|             500           0.246                               0.880E+002
 RTBSE|             501           0.246                               0.880E+002
 RTBSE|             502           0.248                               0.880E+002
 RTBSE|             503           0.247                               0.880E+002
 RTBSE|             504           0.247                               0.880E+002
 RTBSE|             505           0.246                               0.880E+002
 RTBSE|             506           0.247                               0.880E+002
 RTBSE|             507           0.247                               0.880E+002
 RTBSE|             508           0.247                               0.880E+002
 RTBSE|             509           0.247                               0.880E+002
 RTBSE|             510           0.247                               0.880E+002
 RTBSE|             511           0.247                               0.880E+002
 RTBSE|             512           0.247                               0.880E+002
 RTBSE|             513           0.247                               0.880E+002
 RTBSE|             514           0.247                               0.880E+002
 RTBSE|             515           0.247                               0.880E+002
 RTBSE|             516           0.248                               0.880E+002
 RTBSE|             517           0.248                               0.880E+002
 RTBSE|             518           0.246                               0.880E+002
 RTBSE|             519           0.245                               0.880E+002
 RTBSE|             520           0.246                               0.880E+002
 RTBSE|             521           0.246                               0.880E+002
 RTBSE|             522           0.246                               0.880E+002
 RTBSE|             523           0.247                               0.880E+002
 RTBSE|             524           0.246                               0.880E+002
 RTBSE|             525           0.248                               0.880E+002
 RTBSE|             526           0.247                               0.880E+002
 RTBSE|             527           0.254                               0.880E+002
 RTBSE|             528           0.248                               0.880E+002
 RTBSE|             529           0.278                               0.880E+002
 RTBSE|             530           0.247                               0.880E+002
 RTBSE|             531           0.248                               0.880E+002
 RTBSE|             532           0.246                               0.880E+002
 RTBSE|             533           0.334                               0.880E+002
 RTBSE|             534           0.247                               0.880E+002
 RTBSE|             535           0.246                               0.880E+002
 RTBSE|             536           0.247                               0.880E+002
 RTBSE|             537           0.267                               0.880E+002
 RTBSE|             538           0.247                               0.880E+002
 RTBSE|             539           0.247                               0.880E+002
 RTBSE|             540           0.246                               0.880E+002
 RTBSE|             541           0.247                               0.880E+002
 RTBSE|             542           0.247                               0.880E+002
 RTBSE|             543           0.247                               0.880E+002
 RTBSE|             544           0.248                               0.880E+002
 RTBSE|             545           0.281                               0.880E+002
 RTBSE|             546           0.256                               0.880E+002
 RTBSE|             547           0.246                               0.880E+002
 RTBSE|             548           0.249                               0.880E+002
 RTBSE|             549           0.246                               0.880E+002
 RTBSE|             550           0.246                               0.880E+002
 RTBSE|             551           0.246                               0.880E+002
 RTBSE|             552           0.246                               0.880E+002
 RTBSE|             553           0.247                               0.880E+002
 RTBSE|             554           0.247                               0.880E+002
 RTBSE|             555           0.246                               0.880E+002
 RTBSE|             556           0.247                               0.880E+002
 RTBSE|             557           0.247                               0.880E+002
 RTBSE|             558           0.247                               0.880E+002
 RTBSE|             559           0.247                               0.880E+002
 RTBSE|             560           0.247                               0.880E+002
 RTBSE|             561           0.248                               0.880E+002
 RTBSE|             562           0.247                               0.880E+002
 RTBSE|             563           0.246                               0.880E+002
 RTBSE|             564           0.247                               0.880E+002
 RTBSE|             565           0.248                               0.880E+002
 RTBSE|             566           0.246                               0.880E+002
 RTBSE|             567           0.249                               0.880E+002
 RTBSE|             568           0.254                               0.880E+002
 RTBSE|             569           0.249                               0.880E+002
 RTBSE|             570           0.246                               0.880E+002
 RTBSE|             571           0.248                               0.880E+002
 RTBSE|             572           0.247                               0.880E+002
 RTBSE|             573           0.247                               0.880E+002
 RTBSE|             574           0.247                               0.880E+002
 RTBSE|             575           0.247                               0.880E+002
 RTBSE|             576           0.246                               0.880E+002
 RTBSE|             577           0.248                               0.880E+002
 RTBSE|             578           0.248                               0.880E+002
 RTBSE|             579           0.248                               0.880E+002
 RTBSE|             580           0.247                               0.880E+002
 RTBSE|             581           0.247                               0.880E+002
 RTBSE|             582           0.247                               0.880E+002
 RTBSE|             583           0.247                               0.880E+002
 RTBSE|             584           0.246                               0.880E+002
 RTBSE|             585           0.247                               0.880E+002
 RTBSE|             586           0.246                               0.880E+002
 RTBSE|             587           0.248                               0.880E+002
 RTBSE|             588           0.247                               0.880E+002
 RTBSE|             589           0.248                               0.880E+002
 RTBSE|             590           0.247                               0.880E+002
 RTBSE|             591           0.248                               0.880E+002
 RTBSE|             592           0.247                               0.880E+002
 RTBSE|             593           0.249                               0.880E+002
 RTBSE|             594           0.247                               0.880E+002
 RTBSE|             595           0.246                               0.880E+002
 RTBSE|             596           0.247                               0.880E+002
 RTBSE|             597           0.247                               0.880E+002
 RTBSE|             598           0.247                               0.880E+002
 RTBSE|             599           0.246                               0.880E+002
 RTBSE|             600           0.247                               0.880E+002
 RTBSE|             601           0.247                               0.880E+002
 RTBSE|             602           0.246                               0.880E+002
 RTBSE|             603           0.247                               0.880E+002
 RTBSE|             604           0.247                               0.880E+002
 RTBSE|             605           0.247                               0.880E+002
 RTBSE|             606           0.245                               0.880E+002
 RTBSE|             607           0.247                               0.880E+002
 RTBSE|             608           0.248                               0.880E+002
 RTBSE|             609           0.253                               0.880E+002
 RTBSE|             610           0.247                               0.880E+002
 RTBSE|             611           0.248                               0.880E+002
 RTBSE|             612           0.247                               0.880E+002
 RTBSE|             613           0.247                               0.880E+002
 RTBSE|             614           0.247                               0.880E+002
 RTBSE|             615           0.247                               0.880E+002
 RTBSE|             616           0.246                               0.880E+002
 RTBSE|             617           0.247                               0.880E+002
 RTBSE|             618           0.248                               0.880E+002
 RTBSE|             619           0.247                               0.880E+002
 RTBSE|             620           0.249                               0.880E+002
 RTBSE|             621           0.247                               0.880E+002
 RTBSE|             622           0.246                               0.880E+002
 RTBSE|             623           0.246                               0.880E+002
 RTBSE|             624           0.246                               0.880E+002
 RTBSE|             625           0.246                               0.880E+002
 RTBSE|             626           0.246                               0.880E+002
 RTBSE|             627           0.247                               0.880E+002
 RTBSE|             628           0.247                               0.880E+002
 RTBSE|             629           0.246                               0.880E+002
 RTBSE|             630           0.248                               0.880E+002
 RTBSE|             631           0.301                               0.880E+002
 RTBSE|             632           0.248                               0.880E+002
 RTBSE|             633           0.246                               0.880E+002
 RTBSE|             634           0.247                               0.880E+002
 RTBSE|             635           0.248                               0.880E+002
 RTBSE|             636           0.247                               0.880E+002
 RTBSE|             637           0.247                               0.880E+002
 RTBSE|             638           0.246                               0.880E+002
 RTBSE|             639           0.247                               0.880E+002
 RTBSE|             640           0.246                               0.880E+002
 RTBSE|             641           0.247                               0.880E+002
 RTBSE|             642           0.246                               0.880E+002
 RTBSE|             643           0.247                               0.880E+002
 RTBSE|             644           0.248                               0.880E+002
 RTBSE|             645           0.247                               0.880E+002
 RTBSE|             646           0.246                               0.880E+002
 RTBSE|             647           0.248                               0.880E+002
 RTBSE|             648           0.278                               0.880E+002
 RTBSE|             649           0.247                               0.880E+002
 RTBSE|             650           0.255                               0.880E+002
 RTBSE|             651           0.247                               0.880E+002
 RTBSE|             652           0.330                               0.880E+002
 RTBSE|             653           0.247                               0.880E+002
 RTBSE|             654           0.249                               0.880E+002
 RTBSE|             655           0.246                               0.880E+002
 RTBSE|             656           0.268                               0.880E+002
 RTBSE|             657           0.247                               0.880E+002
 RTBSE|             658           0.247                               0.880E+002
 RTBSE|             659           0.247                               0.880E+002
 RTBSE|             660           0.248                               0.880E+002
 RTBSE|             661           0.247                               0.880E+002
 RTBSE|             662           0.247                               0.880E+002
 RTBSE|             663           0.246                               0.880E+002
 RTBSE|             664           0.253                               0.880E+002
 RTBSE|             665           0.269                               0.880E+002
 RTBSE|             666           0.246                               0.880E+002
 RTBSE|             667           0.247                               0.880E+002
 RTBSE|             668           0.247                               0.880E+002
 RTBSE|             669           0.247                               0.880E+002
 RTBSE|             670           0.247                               0.880E+002
 RTBSE|             671           0.246                               0.880E+002
 RTBSE|             672           0.246                               0.880E+002
 RTBSE|             673           0.247                               0.880E+002
 RTBSE|             674           0.247                               0.880E+002
 RTBSE|             675           0.246                               0.880E+002
 RTBSE|             676           0.248                               0.880E+002
 RTBSE|             677           0.247                               0.880E+002
 RTBSE|             678           0.247                               0.880E+002
 RTBSE|             679           0.247                               0.880E+002
 RTBSE|             680           0.246                               0.880E+002
 RTBSE|             681           0.247                               0.880E+002
 RTBSE|             682           0.247                               0.880E+002
 RTBSE|             683           0.246                               0.880E+002
 RTBSE|             684           0.246                               0.880E+002
 RTBSE|             685           0.246                               0.880E+002
 RTBSE|             686           0.246                               0.880E+002
 RTBSE|             687           0.247                               0.880E+002
 RTBSE|             688           0.245                               0.880E+002
 RTBSE|             689           0.248                               0.880E+002
 RTBSE|             690           0.246                               0.880E+002
 RTBSE|             691           0.253                               0.880E+002
 RTBSE|             692           0.246                               0.880E+002
 RTBSE|             693           0.248                               0.880E+002
 RTBSE|             694           0.247                               0.880E+002
 RTBSE|             695           0.248                               0.880E+002
 RTBSE|             696           0.246                               0.880E+002
 RTBSE|             697           0.247                               0.880E+002
 RTBSE|             698           0.247                               0.880E+002
 RTBSE|             699           0.248                               0.880E+002
 RTBSE|             700           0.246                               0.880E+002
 RTBSE|             701           0.247                               0.880E+002
 RTBSE|             702           0.246                               0.880E+002
 RTBSE|             703           0.246                               0.880E+002
 RTBSE|             704           0.246                               0.880E+002
 RTBSE|             705           0.245                               0.880E+002
 RTBSE|             706           0.246                               0.880E+002
 RTBSE|             707           0.246                               0.880E+002
 RTBSE|             708           0.247                               0.880E+002
 RTBSE|             709           0.248                               0.880E+002
 RTBSE|             710           0.246                               0.880E+002
 RTBSE|             711           0.246                               0.880E+002
 RTBSE|             712           0.246                               0.880E+002
 RTBSE|             713           0.247                               0.880E+002
 RTBSE|             714           0.245                               0.880E+002
 RTBSE|             715           0.247                               0.880E+002
 RTBSE|             716           0.248                               0.880E+002
 RTBSE|             717           0.247                               0.880E+002
 RTBSE|             718           0.246                               0.880E+002
 RTBSE|             719           0.247                               0.880E+002
 RTBSE|             720           0.247                               0.880E+002
 RTBSE|             721           0.246                               0.880E+002
 RTBSE|             722           0.247                               0.880E+002
 RTBSE|             723           0.246                               0.880E+002
 RTBSE|             724           0.247                               0.880E+002
 RTBSE|             725           0.247                               0.880E+002
 RTBSE|             726           0.247                               0.880E+002
 RTBSE|             727           0.247                               0.880E+002
 RTBSE|             728           0.246                               0.880E+002
 RTBSE|             729           0.246                               0.880E+002
 RTBSE|             730           0.249                               0.880E+002
 RTBSE|             731           0.246                               0.880E+002
 RTBSE|             732           0.247                               0.880E+002
 RTBSE|             733           0.255                               0.880E+002
 RTBSE|             734           0.248                               0.880E+002
 RTBSE|             735           0.246                               0.880E+002
 RTBSE|             736           0.247                               0.880E+002
 RTBSE|             737           0.246                               0.880E+002
 RTBSE|             738           0.248                               0.880E+002
 RTBSE|             739           0.246                               0.880E+002
 RTBSE|             740           0.246                               0.880E+002
 RTBSE|             741           0.247                               0.880E+002
 RTBSE|             742           0.249                               0.880E+002
 RTBSE|             743           0.246                               0.880E+002
 RTBSE|             744           0.246                               0.880E+002
 RTBSE|             745           0.246                               0.880E+002
 RTBSE|             746           0.245                               0.880E+002
 RTBSE|             747           0.245                               0.880E+002
 RTBSE|             748           0.247                               0.880E+002
 RTBSE|             749           0.246                               0.880E+002
 RTBSE|             750           0.246                               0.880E+002
 RTBSE|             751           0.246                               0.880E+002
 RTBSE|             752           0.246                               0.880E+002
 RTBSE|             753           0.247                               0.880E+002
 RTBSE|             754           0.246                               0.880E+002
 RTBSE|             755           0.246                               0.880E+002
 RTBSE|             756           0.249                               0.880E+002
 RTBSE|             757           0.246                               0.880E+002
 RTBSE|             758           0.247                               0.880E+002
 RTBSE|             759           0.247                               0.880E+002
 RTBSE|             760           0.247                               0.880E+002
 RTBSE|             761           0.247                               0.880E+002
 RTBSE|             762           0.248                               0.880E+002
 RTBSE|             763           0.246                               0.880E+002
 RTBSE|             764           0.247                               0.880E+002
 RTBSE|             765           0.247                               0.880E+002
 RTBSE|             766           0.246                               0.880E+002
 RTBSE|             767           0.284                               0.880E+002
 RTBSE|             768           0.247                               0.880E+002
 RTBSE|             769           0.248                               0.880E+002
 RTBSE|             770           0.246                               0.880E+002
 RTBSE|             771           0.285                               0.880E+002
 RTBSE|             772           0.288                               0.880E+002
 RTBSE|             773           0.248                               0.880E+002
 RTBSE|             774           0.252                               0.880E+002
 RTBSE|             775           0.246                               0.880E+002
 RTBSE|             776           0.267                               0.880E+002
 RTBSE|             777           0.247                               0.880E+002
 RTBSE|             778           0.248                               0.880E+002
 RTBSE|             779           0.246                               0.880E+002
 RTBSE|             780           0.249                               0.880E+002
 RTBSE|             781           0.247                               0.880E+002
 RTBSE|             782           0.248                               0.880E+002
 RTBSE|             783           0.247                               0.880E+002
 RTBSE|             784           0.280                               0.880E+002
 RTBSE|             785           0.247                               0.880E+002
 RTBSE|             786           0.246                               0.880E+002
 RTBSE|             787           0.247                               0.880E+002
 RTBSE|             788           0.246                               0.880E+002
 RTBSE|             789           0.247                               0.880E+002
 RTBSE|             790           0.247                               0.880E+002
 RTBSE|             791           0.246                               0.880E+002
 RTBSE|             792           0.246                               0.880E+002
 RTBSE|             793           0.246                               0.880E+002
 RTBSE|             794           0.246                               0.880E+002
 RTBSE|             795           0.248                               0.880E+002
 RTBSE|             796           0.245                               0.880E+002
 RTBSE|             797           0.248                               0.880E+002
 RTBSE|             798           0.246                               0.880E+002
 RTBSE|             799           0.246                               0.880E+002
 RTBSE|             800           0.247                               0.880E+002
 RTBSE|             801           0.247                               0.880E+002
 RTBSE|             802           0.246                               0.880E+002
 RTBSE|             803           0.248                               0.880E+002
 RTBSE|             804           0.246                               0.880E+002
 RTBSE|             805           0.246                               0.880E+002
 RTBSE|             806           0.246                               0.880E+002
 RTBSE|             807           0.247                               0.880E+002
 RTBSE|             808           0.247                               0.880E+002
 RTBSE|             809           0.249                               0.880E+002
 RTBSE|             810           0.246                               0.880E+002
 RTBSE|             811           0.249                               0.880E+002
 RTBSE|             812           0.246                               0.880E+002
 RTBSE|             813           0.246                               0.880E+002
 RTBSE|             814           0.246                               0.880E+002
 RTBSE|             815           0.252                               0.880E+002
 RTBSE|             816           0.247                               0.880E+002
 RTBSE|             817           0.247                               0.880E+002
 RTBSE|             818           0.246                               0.880E+002
 RTBSE|             819           0.248                               0.880E+002
 RTBSE|             820           0.247                               0.880E+002
 RTBSE|             821           0.246                               0.880E+002
 RTBSE|             822           0.247                               0.880E+002
 RTBSE|             823           0.248                               0.880E+002
 RTBSE|             824           0.247                               0.880E+002
 RTBSE|             825           0.248                               0.880E+002
 RTBSE|             826           0.247                               0.880E+002
 RTBSE|             827           0.246                               0.880E+002
 RTBSE|             828           0.246                               0.880E+002
 RTBSE|             829           0.247                               0.880E+002
 RTBSE|             830           0.246                               0.880E+002
 RTBSE|             831           0.246                               0.880E+002
 RTBSE|             832           0.247                               0.880E+002
 RTBSE|             833           0.248                               0.880E+002
 RTBSE|             834           0.247                               0.880E+002
 RTBSE|             835           0.248                               0.880E+002
 RTBSE|             836           0.246                               0.880E+002
 RTBSE|             837           0.246                               0.880E+002
 RTBSE|             838           0.246                               0.880E+002
 RTBSE|             839           0.246                               0.880E+002
 RTBSE|             840           0.246                               0.880E+002
 RTBSE|             841           0.247                               0.880E+002
 RTBSE|             842           0.246                               0.880E+002
 RTBSE|             843           0.246                               0.880E+002
 RTBSE|             844           0.247                               0.880E+002
 RTBSE|             845           0.247                               0.880E+002
 RTBSE|             846           0.247                               0.880E+002
 RTBSE|             847           0.246                               0.880E+002
 RTBSE|             848           0.248                               0.880E+002
 RTBSE|             849           0.247                               0.880E+002
 RTBSE|             850           0.246                               0.880E+002
 RTBSE|             851           0.247                               0.880E+002
 RTBSE|             852           0.248                               0.880E+002
 RTBSE|             853           0.247                               0.880E+002
 RTBSE|             854           0.247                               0.880E+002
 RTBSE|             855           0.247                               0.880E+002
 RTBSE|             856           0.251                               0.880E+002
 RTBSE|             857           0.247                               0.880E+002
 RTBSE|             858           0.247                               0.880E+002
 RTBSE|             859           0.247                               0.880E+002
 RTBSE|             860           0.246                               0.880E+002
 RTBSE|             861           0.246                               0.880E+002
 RTBSE|             862           0.249                               0.880E+002
 RTBSE|             863           0.246                               0.880E+002
 RTBSE|             864           0.247                               0.880E+002
 RTBSE|             865           0.247                               0.880E+002
 RTBSE|             866           0.247                               0.880E+002
 RTBSE|             867           0.247                               0.880E+002
 RTBSE|             868           0.248                               0.880E+002
 RTBSE|             869           0.246                               0.880E+002
 RTBSE|             870           0.301                               0.880E+002
 RTBSE|             871           0.247                               0.880E+002
 RTBSE|             872           0.246                               0.880E+002
 RTBSE|             873           0.246                               0.880E+002
 RTBSE|             874           0.247                               0.880E+002
 RTBSE|             875           0.248                               0.880E+002
 RTBSE|             876           0.247                               0.880E+002
 RTBSE|             877           0.247                               0.880E+002
 RTBSE|             878           0.246                               0.880E+002
 RTBSE|             879           0.246                               0.880E+002
 RTBSE|             880           0.247                               0.880E+002
 RTBSE|             881           0.246                               0.880E+002
 RTBSE|             882           0.247                               0.880E+002
 RTBSE|             883           0.247                               0.880E+002
 RTBSE|             884           0.248                               0.880E+002
 RTBSE|             885           0.246                               0.880E+002
 RTBSE|             886           0.252                               0.880E+002
 RTBSE|             887           0.270                               0.880E+002
 RTBSE|             888           0.248                               0.880E+002
 RTBSE|             889           0.247                               0.880E+002
 RTBSE|             890           0.246                               0.880E+002
 RTBSE|             891           0.333                               0.880E+002
 RTBSE|             892           0.247                               0.880E+002
 RTBSE|             893           0.246                               0.880E+002
 RTBSE|             894           0.247                               0.880E+002
 RTBSE|             895           0.266                               0.880E+002
 RTBSE|             896           0.248                               0.880E+002
 RTBSE|             897           0.255                               0.880E+002
 RTBSE|             898           0.248                               0.880E+002
 RTBSE|             899           0.248                               0.880E+002
 RTBSE|             900           0.247                               0.880E+002
 RTBSE|             901           0.247                               0.880E+002
 RTBSE|             902           0.247                               0.880E+002
 RTBSE|             903           0.279                               0.880E+002
 RTBSE|             904           0.247                               0.880E+002
 RTBSE|             905           0.246                               0.880E+002
 RTBSE|             906           0.247                               0.880E+002
 RTBSE|             907           0.246                               0.880E+002
 RTBSE|             908           0.246                               0.880E+002
 RTBSE|             909           0.247                               0.880E+002
 RTBSE|             910           0.248                               0.880E+002
 RTBSE|             911           0.247                               0.880E+002
 RTBSE|             912           0.246                               0.880E+002
 RTBSE|             913           0.246                               0.880E+002
 RTBSE|             914           0.247                               0.880E+002
 RTBSE|             915           0.246                               0.880E+002
 RTBSE|             916           0.248                               0.880E+002
 RTBSE|             917           0.246                               0.880E+002
 RTBSE|             918           0.246                               0.880E+002
 RTBSE|             919           0.246                               0.880E+002
 RTBSE|             920           0.246                               0.880E+002
 RTBSE|             921           0.247                               0.880E+002
 RTBSE|             922           0.247                               0.880E+002
 RTBSE|             923           0.247                               0.880E+002
 RTBSE|             924           0.247                               0.880E+002
 RTBSE|             925           0.247                               0.880E+002
 RTBSE|             926           0.247                               0.880E+002
 RTBSE|             927           0.248                               0.880E+002
 RTBSE|             928           0.245                               0.880E+002
 RTBSE|             929           0.248                               0.880E+002
 RTBSE|             930           0.247                               0.880E+002
 RTBSE|             931           0.247                               0.880E+002
 RTBSE|             932           0.246                               0.880E+002
 RTBSE|             933           0.248                               0.880E+002
 RTBSE|             934           0.246                               0.880E+002
 RTBSE|             935           0.246                               0.880E+002
 RTBSE|             936           0.247                               0.880E+002
 RTBSE|             937           0.246                               0.880E+002
 RTBSE|             938           0.254                               0.880E+002
 RTBSE|             939           0.248                               0.880E+002
 RTBSE|             940           0.246                               0.880E+002
 RTBSE|             941           0.247                               0.880E+002
 RTBSE|             942           0.246                               0.880E+002
 RTBSE|             943           0.248                               0.880E+002
 RTBSE|             944           0.245                               0.880E+002
 RTBSE|             945           0.246                               0.880E+002
 RTBSE|             946           0.247                               0.880E+002
 RTBSE|             947           0.248                               0.880E+002
 RTBSE|             948           0.246                               0.880E+002
 RTBSE|             949           0.247                               0.880E+002
 RTBSE|             950           0.246                               0.880E+002
 RTBSE|             951           0.248                               0.880E+002
 RTBSE|             952           0.246                               0.880E+002
 RTBSE|             953           0.246                               0.880E+002
 RTBSE|             954           0.247                               0.880E+002
 RTBSE|             955           0.246                               0.880E+002
 RTBSE|             956           0.247                               0.880E+002
 RTBSE|             957           0.246                               0.880E+002
 RTBSE|             958           0.247                               0.880E+002
 RTBSE|             959           0.246                               0.880E+002
 RTBSE|             960           0.247                               0.880E+002
 RTBSE|             961           0.246                               0.880E+002
 RTBSE|             962           0.246                               0.880E+002
 RTBSE|             963           0.247                               0.880E+002
 RTBSE|             964           0.248                               0.880E+002
 RTBSE|             965           0.247                               0.880E+002
 RTBSE|             966           0.247                               0.880E+002
 RTBSE|             967           0.247                               0.880E+002
 RTBSE|             968           0.248                               0.880E+002
 RTBSE|             969           0.247                               0.880E+002
 RTBSE|             970           0.248                               0.880E+002
 RTBSE|             971           0.247                               0.880E+002
 RTBSE|             972           0.248                               0.880E+002
 RTBSE|             973           0.247                               0.880E+002
 RTBSE|             974           0.247                               0.880E+002
 RTBSE|             975           0.246                               0.880E+002
 RTBSE|             976           0.246                               0.880E+002
 RTBSE|             977           0.246                               0.880E+002
 RTBSE|             978           0.248                               0.880E+002
 RTBSE|             979           0.251                               0.880E+002
 RTBSE|             980           0.250                               0.880E+002
 RTBSE|             981           0.246                               0.880E+002
 RTBSE|             982           0.248                               0.880E+002
 RTBSE|             983           0.246                               0.880E+002
 RTBSE|             984           0.247                               0.880E+002
 RTBSE|             985           0.246                               0.880E+002
 RTBSE|             986           0.247                               0.880E+002
 RTBSE|             987           0.247                               0.880E+002
 RTBSE|             988           0.249                               0.880E+002
 RTBSE|             989           0.246                               0.880E+002
 RTBSE|             990           0.248                               0.880E+002
 RTBSE|             991           0.246                               0.880E+002
 RTBSE|             992           0.248                               0.880E+002
 RTBSE|             993           0.247                               0.880E+002
 RTBSE|             994           0.249                               0.880E+002
 RTBSE|             995           0.247                               0.880E+002
 RTBSE|             996           0.248                               0.880E+002
 RTBSE|             997           0.246                               0.880E+002
 RTBSE|             998           0.246                               0.880E+002
 RTBSE|             999           0.247                               0.880E+002
 RTBSE|            1000           0.246                               0.880E+002
 RTBSE|            1001           0.246                               0.880E+002
 RTBSE|            1002           0.246                               0.880E+002
 RTBSE|            1003           0.247                               0.880E+002
 RTBSE|            1004           0.248                               0.880E+002
 RTBSE|            1005           0.246                               0.880E+002
 RTBSE|            1006           0.274                               0.880E+002
 RTBSE|            1007           0.248                               0.880E+002
 RTBSE|            1008           0.247                               0.880E+002
 RTBSE|            1009           0.247                               0.880E+002
 RTBSE|            1010           0.327                               0.880E+002
 RTBSE|            1011           0.247                               0.880E+002
 RTBSE|            1012           0.248                               0.880E+002
 RTBSE|            1013           0.247                               0.880E+002
 RTBSE|            1014           0.268                               0.880E+002
 RTBSE|            1015           0.247                               0.880E+002
 RTBSE|            1016           0.248                               0.880E+002
 RTBSE|            1017           0.246                               0.880E+002
 RTBSE|            1018           0.248                               0.880E+002
 RTBSE|            1019           0.247                               0.880E+002
 RTBSE|            1020           0.253                               0.880E+002
 RTBSE|            1021           0.248                               0.880E+002
 RTBSE|            1022           0.285                               0.880E+002
 RTBSE|            1023           0.247                               0.880E+002
 RTBSE|            1024           0.246                               0.880E+002
 RTBSE|            1025           0.246                               0.880E+002
 RTBSE|            1026           0.247                               0.880E+002
 RTBSE|            1027           0.246                               0.880E+002
 RTBSE|            1028           0.247                               0.880E+002
 RTBSE|            1029           0.246                               0.880E+002
 RTBSE|            1030           0.249                               0.880E+002
 RTBSE|            1031           0.247                               0.880E+002
 RTBSE|            1032           0.247                               0.880E+002
 RTBSE|            1033           0.247                               0.880E+002
 RTBSE|            1034           0.246                               0.880E+002
 RTBSE|            1035           0.248                               0.880E+002
 RTBSE|            1036           0.247                               0.880E+002
 RTBSE|            1037           0.248                               0.880E+002
 RTBSE|            1038           0.246                               0.880E+002
 RTBSE|            1039           0.247                               0.880E+002
 RTBSE|            1040           0.247                               0.880E+002
 RTBSE|            1041           0.247                               0.880E+002
 RTBSE|            1042           0.248                               0.880E+002
 RTBSE|            1043           0.246                               0.880E+002
 RTBSE|            1044           0.247                               0.880E+002
 RTBSE|            1045           0.246                               0.880E+002
 RTBSE|            1046           0.247                               0.880E+002
 RTBSE|            1047           0.247                               0.880E+002
 RTBSE|            1048           0.245                               0.880E+002
 RTBSE|            1049           0.247                               0.880E+002
 RTBSE|            1050           0.246                               0.880E+002
 RTBSE|            1051           0.249                               0.880E+002
 RTBSE|            1052           0.246                               0.880E+002
 RTBSE|            1053           0.247                               0.880E+002
 RTBSE|            1054           0.246                               0.880E+002
 RTBSE|            1055           0.248                               0.880E+002
 RTBSE|            1056           0.247                               0.880E+002
 RTBSE|            1057           0.247                               0.880E+002
 RTBSE|            1058           0.247                               0.880E+002
 RTBSE|            1059           0.247                               0.880E+002
 RTBSE|            1060           0.246                               0.880E+002
 RTBSE|            1061           0.246                               0.880E+002
 RTBSE|            1062           0.253                               0.880E+002
 RTBSE|            1063           0.249                               0.880E+002
 RTBSE|            1064           0.247                               0.880E+002
 RTBSE|            1065           0.246                               0.880E+002
 RTBSE|            1066           0.247                               0.880E+002
 RTBSE|            1067           0.246                               0.880E+002
 RTBSE|            1068           0.245                               0.880E+002
 RTBSE|            1069           0.246                               0.880E+002
 RTBSE|            1070           0.247                               0.880E+002
 RTBSE|            1071           0.247                               0.880E+002
 RTBSE|            1072           0.247                               0.880E+002
 RTBSE|            1073           0.248                               0.880E+002
 RTBSE|            1074           0.247                               0.880E+002
 RTBSE|            1075           0.248                               0.880E+002
 RTBSE|            1076           0.247                               0.880E+002
 RTBSE|            1077           0.248                               0.880E+002
 RTBSE|            1078           0.247                               0.880E+002
 RTBSE|            1079           0.247                               0.880E+002
 RTBSE|            1080           0.249                               0.880E+002
 RTBSE|            1081           0.247                               0.880E+002
 RTBSE|            1082           0.246                               0.880E+002
 RTBSE|            1083           0.246                               0.880E+002
 RTBSE|            1084           0.246                               0.880E+002
 RTBSE|            1085           0.247                               0.880E+002
 RTBSE|            1086           0.248                               0.880E+002
 RTBSE|            1087           0.246                               0.880E+002
 RTBSE|            1088           0.247                               0.880E+002
 RTBSE|            1089           0.245                               0.880E+002
 RTBSE|            1090           0.247                               0.880E+002
 RTBSE|            1091           0.246                               0.880E+002
 RTBSE|            1092           0.246                               0.880E+002
 RTBSE|            1093           0.246                               0.880E+002
 RTBSE|            1094           0.246                               0.880E+002
 RTBSE|            1095           0.246                               0.880E+002
 RTBSE|            1096           0.249                               0.880E+002
 RTBSE|            1097           0.247                               0.880E+002
 RTBSE|            1098           0.248                               0.880E+002
 RTBSE|            1099           0.246                               0.880E+002
 RTBSE|            1100           0.248                               0.880E+002
 RTBSE|            1101           0.248                               0.880E+002
 RTBSE|            1102           0.248                               0.880E+002
 RTBSE|            1103           0.253                               0.880E+002
 RTBSE|            1104           0.248                               0.880E+002
 RTBSE|            1105           0.246                               0.880E+002
 RTBSE|            1106           0.246                               0.880E+002
 RTBSE|            1107           0.246                               0.880E+002
 RTBSE|            1108           0.302                               0.880E+002
 RTBSE|            1109           0.247                               0.880E+002
 RTBSE|            1110           0.248                               0.880E+002
 RTBSE|            1111           0.247                               0.880E+002
 RTBSE|            1112           0.246                               0.880E+002
 RTBSE|            1113           0.247                               0.880E+002
 RTBSE|            1114           0.246                               0.880E+002
 RTBSE|            1115           0.246                               0.880E+002
 RTBSE|            1116           0.247                               0.880E+002
 RTBSE|            1117           0.246                               0.880E+002
 RTBSE|            1118           0.247                               0.880E+002
 RTBSE|            1119           0.247                               0.880E+002
 RTBSE|            1120           0.248                               0.880E+002
 RTBSE|            1121           0.246                               0.880E+002
 RTBSE|            1122           0.247                               0.880E+002
 RTBSE|            1123           0.246                               0.880E+002
 RTBSE|            1124           0.247                               0.880E+002
 RTBSE|            1125           0.277                               0.880E+002
 RTBSE|            1126           0.246                               0.880E+002
 RTBSE|            1127           0.247                               0.880E+002
 RTBSE|            1128           0.248                               0.880E+002
 RTBSE|            1129           0.329                               0.880E+002
 RTBSE|            1130           0.246                               0.880E+002
 RTBSE|            1131           0.246                               0.880E+002
 RTBSE|            1132           0.247                               0.880E+002
 RTBSE|            1133           0.266                               0.880E+002
 RTBSE|            1134           0.247                               0.880E+002
 RTBSE|            1135           0.247                               0.880E+002
 RTBSE|            1136           0.248                               0.880E+002
 RTBSE|            1137           0.248                               0.880E+002
 RTBSE|            1138           0.247                               0.880E+002
 RTBSE|            1139           0.246                               0.880E+002
 RTBSE|            1140           0.247                               0.880E+002
 RTBSE|            1141           0.277                               0.880E+002
 RTBSE|            1142           0.247                               0.880E+002
 RTBSE|            1143           0.247                               0.880E+002
 RTBSE|            1144           0.252                               0.880E+002
 RTBSE|            1145           0.247                               0.880E+002
 RTBSE|            1146           0.248                               0.880E+002
 RTBSE|            1147           0.247                               0.880E+002
 RTBSE|            1148           0.247                               0.880E+002
 RTBSE|            1149           0.246                               0.880E+002
 RTBSE|            1150           0.247                               0.880E+002
 RTBSE|            1151           0.246                               0.880E+002
 RTBSE|            1152           0.248                               0.880E+002
 RTBSE|            1153           0.247                               0.880E+002
 RTBSE|            1154           0.246                               0.880E+002
 RTBSE|            1155           0.246                               0.880E+002
 RTBSE|            1156           0.246                               0.880E+002
 RTBSE|            1157           0.246                               0.880E+002
 RTBSE|            1158           0.247                               0.880E+002
 RTBSE|            1159           0.247                               0.880E+002
 RTBSE|            1160           0.245                               0.880E+002
 RTBSE|            1161           0.248                               0.880E+002
 RTBSE|            1162           0.246                               0.880E+002
 RTBSE|            1163           0.247                               0.880E+002
 RTBSE|            1164           0.245                               0.880E+002
 RTBSE|            1165           0.247                               0.880E+002
 RTBSE|            1166           0.246                               0.880E+002
 RTBSE|            1167           0.247                               0.880E+002
 RTBSE|            1168           0.247                               0.880E+002
 RTBSE|            1169           0.247                               0.880E+002
 RTBSE|            1170           0.247                               0.880E+002
 RTBSE|            1171           0.246                               0.880E+002
 RTBSE|            1172           0.246                               0.880E+002
 RTBSE|            1173           0.246                               0.880E+002
 RTBSE|            1174           0.246                               0.880E+002
 RTBSE|            1175           0.248                               0.880E+002
 RTBSE|            1176           0.246                               0.880E+002
 RTBSE|            1177           0.246                               0.880E+002
 RTBSE|            1178           0.246                               0.880E+002
 RTBSE|            1179           0.246                               0.880E+002
 RTBSE|            1180           0.246                               0.880E+002
 RTBSE|            1181           0.247                               0.880E+002
 RTBSE|            1182           0.246                               0.880E+002
 RTBSE|            1183           0.248                               0.880E+002
 RTBSE|            1184           0.247                               0.880E+002
 RTBSE|            1185           0.254                               0.880E+002
 RTBSE|            1186           0.247                               0.880E+002
 RTBSE|            1187           0.248                               0.880E+002
 RTBSE|            1188           0.247                               0.880E+002
 RTBSE|            1189           0.246                               0.880E+002
 RTBSE|            1190           0.247                               0.880E+002
 RTBSE|            1191           0.247                               0.880E+002
 RTBSE|            1192           0.249                               0.880E+002
 RTBSE|            1193           0.246                               0.880E+002
 RTBSE|            1194           0.247                               0.880E+002
 RTBSE|            1195           0.247                               0.880E+002
 RTBSE|            1196           0.247                               0.880E+002
 RTBSE|            1197           0.247                               0.880E+002
 RTBSE|            1198           0.246                               0.880E+002
 RTBSE|            1199           0.246                               0.880E+002
 RTBSE|            1200           0.274                               0.880E+002
 RTBSE|            1201           0.247                               0.880E+002
 RTBSE|            1202           0.246                               0.880E+002
 RTBSE|            1203           0.247                               0.880E+002
 RTBSE|            1204           0.247                               0.880E+002
 RTBSE|            1205           0.248                               0.880E+002
 RTBSE|            1206           0.247                               0.880E+002
 RTBSE|            1207           0.247                               0.880E+002
 RTBSE|            1208           0.247                               0.880E+002
 RTBSE|            1209           0.246                               0.880E+002
 RTBSE|            1210           0.247                               0.880E+002
 RTBSE|            1211           0.247                               0.880E+002
 RTBSE|            1212           0.246                               0.880E+002
 RTBSE|            1213           0.246                               0.880E+002
 RTBSE|            1214           0.247                               0.880E+002
 RTBSE|            1215           0.247                               0.880E+002
 RTBSE|            1216           0.247                               0.880E+002
 RTBSE|            1217           0.246                               0.880E+002
 RTBSE|            1218           0.248                               0.880E+002
 RTBSE|            1219           0.246                               0.880E+002
 RTBSE|            1220           0.246                               0.880E+002
 RTBSE|            1221           0.247                               0.880E+002
 RTBSE|            1222           0.248                               0.880E+002
 RTBSE|            1223           0.247                               0.880E+002
 RTBSE|            1224           0.248                               0.880E+002
 RTBSE|            1225           0.246                               0.880E+002
 RTBSE|            1226           0.254                               0.880E+002
 RTBSE|            1227           0.248                               0.880E+002
 RTBSE|            1228           0.248                               0.880E+002
 RTBSE|            1229           0.246                               0.880E+002
 RTBSE|            1230           0.247                               0.880E+002
 RTBSE|            1231           0.247                               0.880E+002
 RTBSE|            1232           0.248                               0.880E+002
 RTBSE|            1233           0.247                               0.880E+002
 RTBSE|            1234           0.247                               0.880E+002
 RTBSE|            1235           0.247                               0.880E+002
 RTBSE|            1236           0.247                               0.880E+002
 RTBSE|            1237           0.247                               0.880E+002
 RTBSE|            1238           0.247                               0.880E+002
 RTBSE|            1239           0.245                               0.880E+002
 RTBSE|            1240           0.247                               0.880E+002
 RTBSE|            1241           0.246                               0.880E+002
 RTBSE|            1242           0.247                               0.880E+002
 RTBSE|            1243           0.246                               0.880E+002
 RTBSE|            1244           0.284                               0.880E+002
 RTBSE|            1245           0.247                               0.880E+002
 RTBSE|            1246           0.247                               0.880E+002
 RTBSE|            1247           0.246                               0.880E+002
 RTBSE|            1248           0.324                               0.880E+002
 RTBSE|            1249           0.247                               0.880E+002
 RTBSE|            1250           0.247                               0.880E+002
 RTBSE|            1251           0.246                               0.880E+002
 RTBSE|            1252           0.267                               0.880E+002
 RTBSE|            1253           0.247                               0.880E+002
 RTBSE|            1254           0.247                               0.880E+002
 RTBSE|            1255           0.247                               0.880E+002
 RTBSE|            1256           0.248                               0.880E+002
 RTBSE|            1257           0.248                               0.880E+002
 RTBSE|            1258           0.246                               0.880E+002
 RTBSE|            1259           0.246                               0.880E+002
 RTBSE|            1260           0.275                               0.880E+002
 RTBSE|            1261           0.246                               0.880E+002
 RTBSE|            1262           0.246                               0.880E+002
 RTBSE|            1263           0.247                               0.880E+002
 RTBSE|            1264           0.248                               0.880E+002
 RTBSE|            1265           0.246                               0.880E+002
 RTBSE|            1266           0.247                               0.880E+002
 RTBSE|            1267           0.253                               0.880E+002
 RTBSE|            1268           0.249                               0.880E+002
 RTBSE|            1269           0.246                               0.880E+002
 RTBSE|            1270           0.248                               0.880E+002
 RTBSE|            1271           0.246                               0.880E+002
 RTBSE|            1272           0.249                               0.880E+002
 RTBSE|            1273           0.246                               0.880E+002
 RTBSE|            1274           0.246                               0.880E+002
 RTBSE|            1275           0.246                               0.880E+002
 RTBSE|            1276           0.246                               0.880E+002
 RTBSE|            1277           0.246                               0.880E+002
 RTBSE|            1278           0.246                               0.880E+002
 RTBSE|            1279           0.246                               0.880E+002
 RTBSE|            1280           0.246                               0.880E+002
 RTBSE|            1281           0.247                               0.880E+002
 RTBSE|            1282           0.246                               0.880E+002
 RTBSE|            1283           0.247                               0.880E+002
 RTBSE|            1284           0.246                               0.880E+002
 RTBSE|            1285           0.248                               0.880E+002
 RTBSE|            1286           0.247                               0.880E+002
 RTBSE|            1287           0.248                               0.880E+002
 RTBSE|            1288           0.246                               0.880E+002
 RTBSE|            1289           0.247                               0.880E+002
 RTBSE|            1290           0.245                               0.880E+002
 RTBSE|            1291           0.247                               0.880E+002
 RTBSE|            1292           0.246                               0.880E+002
 RTBSE|            1293           0.248                               0.880E+002
 RTBSE|            1294           0.246                               0.880E+002
 RTBSE|            1295           0.246                               0.880E+002
 RTBSE|            1296           0.246                               0.880E+002
 RTBSE|            1297           0.246                               0.880E+002
 RTBSE|            1298           0.247                               0.880E+002
 RTBSE|            1299           0.247                               0.880E+002
 RTBSE|            1300           0.246                               0.880E+002
 RTBSE|            1301           0.246                               0.880E+002
 RTBSE|            1302           0.246                               0.880E+002
 RTBSE|            1303           0.245                               0.880E+002
 RTBSE|            1304           0.246                               0.880E+002
 RTBSE|            1305           0.248                               0.880E+002
 RTBSE|            1306           0.245                               0.880E+002
 RTBSE|            1307           0.247                               0.880E+002
 RTBSE|            1308           0.252                               0.880E+002
 RTBSE|            1309           0.250                               0.880E+002
 RTBSE|            1310           0.248                               0.880E+002
 RTBSE|            1311           0.248                               0.880E+002
 RTBSE|            1312           0.247                               0.880E+002
 RTBSE|            1313           0.246                               0.880E+002
 RTBSE|            1314           0.246                               0.880E+002
 RTBSE|            1315           0.247                               0.880E+002
 RTBSE|            1316           0.247                               0.880E+002
 RTBSE|            1317           0.248                               0.880E+002
 RTBSE|            1318           0.247                               0.880E+002
 RTBSE|            1319           0.247                               0.880E+002
 RTBSE|            1320           0.246                               0.880E+002
 RTBSE|            1321           0.246                               0.880E+002
 RTBSE|            1322           0.246                               0.880E+002
 RTBSE|            1323           0.247                               0.880E+002
 RTBSE|            1324           0.246                               0.880E+002
 RTBSE|            1325           0.246                               0.880E+002
 RTBSE|            1326           0.246                               0.880E+002
 RTBSE|            1327           0.246                               0.880E+002
 RTBSE|            1328           0.247                               0.880E+002
 RTBSE|            1329           0.247                               0.880E+002
 RTBSE|            1330           0.246                               0.880E+002
 RTBSE|            1331           0.246                               0.880E+002
 RTBSE|            1332           0.248                               0.880E+002
 RTBSE|            1333           0.247                               0.880E+002
 RTBSE|            1334           0.247                               0.880E+002
 RTBSE|            1335           0.247                               0.880E+002
 RTBSE|            1336           0.246                               0.880E+002
 RTBSE|            1337           0.247                               0.880E+002
 RTBSE|            1338           0.246                               0.880E+002
 RTBSE|            1339           0.246                               0.880E+002
 RTBSE|            1340           0.246                               0.880E+002
 RTBSE|            1341           0.246                               0.880E+002
 RTBSE|            1342           0.246                               0.880E+002
 RTBSE|            1343           0.246                               0.880E+002
 RTBSE|            1344           0.247                               0.880E+002
 RTBSE|            1345           0.246                               0.880E+002
 RTBSE|            1346           0.246                               0.880E+002
 RTBSE|            1347           0.302                               0.880E+002
 RTBSE|            1348           0.247                               0.880E+002
 RTBSE|            1349           0.247                               0.880E+002
 RTBSE|            1350           0.254                               0.880E+002
 RTBSE|            1351           0.248                               0.880E+002
 RTBSE|            1352           0.248                               0.880E+002
 RTBSE|            1353           0.247                               0.880E+002
 RTBSE|            1354           0.247                               0.880E+002
 RTBSE|            1355           0.247                               0.880E+002
 RTBSE|            1356           0.247                               0.880E+002
 RTBSE|            1357           0.246                               0.880E+002
 RTBSE|            1358           0.246                               0.880E+002
 RTBSE|            1359           0.246                               0.880E+002
 RTBSE|            1360           0.246                               0.880E+002
 RTBSE|            1361           0.247                               0.880E+002
 RTBSE|            1362           0.247                               0.880E+002
 RTBSE|            1363           0.281                               0.880E+002
 RTBSE|            1364           0.246                               0.880E+002
 RTBSE|            1365           0.246                               0.880E+002
 RTBSE|            1366           0.246                               0.880E+002
 RTBSE|            1367           0.333                               0.880E+002
 RTBSE|            1368           0.246                               0.880E+002
 RTBSE|            1369           0.247                               0.880E+002
 RTBSE|            1370           0.248                               0.880E+002
 RTBSE|            1371           0.267                               0.880E+002
 RTBSE|            1372           0.248                               0.880E+002
 RTBSE|            1373           0.247                               0.880E+002
 RTBSE|            1374           0.248                               0.880E+002
 RTBSE|            1375           0.248                               0.880E+002
 RTBSE|            1376           0.248                               0.880E+002
 RTBSE|            1377           0.246                               0.880E+002
 RTBSE|            1378           0.247                               0.880E+002
 RTBSE|            1379           0.277                               0.880E+002
 RTBSE|            1380           0.247                               0.880E+002
 RTBSE|            1381           0.247                               0.880E+002
 RTBSE|            1382           0.248                               0.880E+002
 RTBSE|            1383           0.246                               0.880E+002
 RTBSE|            1384           0.246                               0.880E+002
 RTBSE|            1385           0.247                               0.880E+002
 RTBSE|            1386           0.247                               0.880E+002
 RTBSE|            1387           0.247                               0.880E+002
 RTBSE|            1388           0.246                               0.880E+002
 RTBSE|            1389           0.246                               0.880E+002
 RTBSE|            1390           0.253                               0.880E+002
 RTBSE|            1391           0.248                               0.880E+002
 RTBSE|            1392           0.248                               0.880E+002
 RTBSE|            1393           0.246                               0.880E+002
 RTBSE|            1394           0.247                               0.880E+002
 RTBSE|            1395           0.246                               0.880E+002
 RTBSE|            1396           0.247                               0.880E+002
 RTBSE|            1397           0.247                               0.880E+002
 RTBSE|            1398           0.246                               0.880E+002
 RTBSE|            1399           0.247                               0.880E+002
 RTBSE|            1400           0.246                               0.880E+002
 RTBSE|            1401           0.247                               0.880E+002
 RTBSE|            1402           0.246                               0.880E+002
 RTBSE|            1403           0.246                               0.880E+002
 RTBSE|            1404           0.246                               0.880E+002
 RTBSE|            1405           0.245                               0.880E+002
 RTBSE|            1406           0.248                               0.880E+002
 RTBSE|            1407           0.247                               0.880E+002
 RTBSE|            1408           0.246                               0.880E+002
 RTBSE|            1409           0.246                               0.880E+002
 RTBSE|            1410           0.246                               0.880E+002
 RTBSE|            1411           0.247                               0.880E+002
 RTBSE|            1412           0.246                               0.880E+002
 RTBSE|            1413           0.248                               0.880E+002
 RTBSE|            1414           0.247                               0.880E+002
 RTBSE|            1415           0.249                               0.880E+002
 RTBSE|            1416           0.247                               0.880E+002
 RTBSE|            1417           0.247                               0.880E+002
 RTBSE|            1418           0.247                               0.880E+002
 RTBSE|            1419           0.248                               0.880E+002
 RTBSE|            1420           0.247                               0.880E+002
 RTBSE|            1421           0.247                               0.880E+002
 RTBSE|            1422           0.246                               0.880E+002
 RTBSE|            1423           0.246                               0.880E+002
 RTBSE|            1424           0.247                               0.880E+002
 RTBSE|            1425           0.246                               0.880E+002
 RTBSE|            1426           0.246                               0.880E+002
 RTBSE|            1427           0.246                               0.880E+002
 RTBSE|            1428           0.247                               0.880E+002
 RTBSE|            1429           0.247                               0.880E+002
 RTBSE|            1430           0.246                               0.880E+002
 RTBSE|            1431           0.248                               0.880E+002
 RTBSE|            1432           0.254                               0.880E+002
 RTBSE|            1433           0.247                               0.880E+002
 RTBSE|            1434           0.246                               0.880E+002
 RTBSE|            1435           0.248                               0.880E+002
 RTBSE|            1436           0.248                               0.880E+002
 RTBSE|            1437           0.247                               0.880E+002
 RTBSE|            1438           0.247                               0.880E+002
 RTBSE|            1439           0.247                               0.880E+002
 RTBSE|            1440           0.246                               0.880E+002
 RTBSE|            1441           0.247                               0.880E+002
 RTBSE|            1442           0.246                               0.880E+002
 RTBSE|            1443           0.246                               0.880E+002
 RTBSE|            1444           0.247                               0.880E+002
 RTBSE|            1445           0.246                               0.880E+002
 RTBSE|            1446           0.247                               0.880E+002
 RTBSE|            1447           0.246                               0.880E+002
 RTBSE|            1448           0.246                               0.880E+002
 RTBSE|            1449           0.247                               0.880E+002
 RTBSE|            1450           0.246                               0.880E+002
 RTBSE|            1451           0.247                               0.880E+002
 RTBSE|            1452           0.246                               0.880E+002
 RTBSE|            1453           0.247                               0.880E+002
 RTBSE|            1454           0.247                               0.880E+002
 RTBSE|            1455           0.246                               0.880E+002
 RTBSE|            1456           0.248                               0.880E+002
 RTBSE|            1457           0.247                               0.880E+002
 RTBSE|            1458           0.248                               0.880E+002
 RTBSE|            1459           0.247                               0.880E+002
 RTBSE|            1460           0.246                               0.880E+002
 RTBSE|            1461           0.246                               0.880E+002
 RTBSE|            1462           0.248                               0.880E+002
 RTBSE|            1463           0.246                               0.880E+002
 RTBSE|            1464           0.247                               0.880E+002
 RTBSE|            1465           0.246                               0.880E+002
 RTBSE|            1466           0.246                               0.880E+002
 RTBSE|            1467           0.246                               0.880E+002
 RTBSE|            1468           0.247                               0.880E+002
 RTBSE|            1469           0.247                               0.880E+002
 RTBSE|            1470           0.246                               0.880E+002
 RTBSE|            1471           0.248                               0.880E+002
 RTBSE|            1472           0.248                               0.880E+002
 RTBSE|            1473           0.254                               0.880E+002
 RTBSE|            1474           0.246                               0.880E+002
 RTBSE|            1475           0.247                               0.880E+002
 RTBSE|            1476           0.248                               0.880E+002
 RTBSE|            1477           0.247                               0.880E+002
 RTBSE|            1478           0.248                               0.880E+002
 RTBSE|            1479           0.246                               0.880E+002
 RTBSE|            1480           0.248                               0.880E+002
 RTBSE|            1481           0.247                               0.880E+002
 RTBSE|            1482           0.282                               0.880E+002
 RTBSE|            1483           0.247                               0.880E+002
 RTBSE|            1484           0.246                               0.880E+002
 RTBSE|            1485           0.248                               0.880E+002
 RTBSE|            1486           0.316                               0.880E+002
 RTBSE|            1487           0.247                               0.880E+002
 RTBSE|            1488           0.246                               0.880E+002
 RTBSE|            1489           0.248                               0.880E+002
 RTBSE|            1490           0.266                               0.880E+002
 RTBSE|            1491           0.246                               0.880E+002
 RTBSE|            1492           0.247                               0.880E+002
 RTBSE|            1493           0.247                               0.880E+002
 RTBSE|            1494           0.248                               0.880E+002
 RTBSE|            1495           0.247                               0.880E+002
 RTBSE|            1496           0.248                               0.880E+002
 RTBSE|            1497           0.248                               0.880E+002
 RTBSE|            1498           0.281                               0.880E+002
 RTBSE|            1499           0.248                               0.880E+002
 RTBSE|            1500           0.248                               0.880E+002
 RTBSE|            1501           0.246                               0.880E+002
 RTBSE|            1502           0.248                               0.880E+002
 RTBSE|            1503           0.246                               0.880E+002
 RTBSE|            1504           0.247                               0.880E+002
 RTBSE|            1505           0.247                               0.880E+002
 RTBSE|            1506           0.247                               0.880E+002
 RTBSE|            1507           0.246                               0.880E+002
 RTBSE|            1508           0.247                               0.880E+002
 RTBSE|            1509           0.247                               0.880E+002
 RTBSE|            1510           0.249                               0.880E+002
 RTBSE|            1511           0.247                               0.880E+002
 RTBSE|            1512           0.245                               0.880E+002
 RTBSE|            1513           0.246                               0.880E+002
 RTBSE|            1514           0.253                               0.880E+002
 RTBSE|            1515           0.247                               0.880E+002
 RTBSE|            1516           0.247                               0.880E+002
 RTBSE|            1517           0.246                               0.880E+002
 RTBSE|            1518           0.247                               0.880E+002
 RTBSE|            1519           0.246                               0.880E+002
 RTBSE|            1520           0.248                               0.880E+002
 RTBSE|            1521           0.247                               0.880E+002
 RTBSE|            1522           0.249                               0.880E+002
 RTBSE|            1523           0.246                               0.880E+002
 RTBSE|            1524           0.247                               0.880E+002
 RTBSE|            1525           0.248                               0.880E+002
 RTBSE|            1526           0.246                               0.880E+002
 RTBSE|            1527           0.248                               0.880E+002
 RTBSE|            1528           0.247                               0.880E+002
 RTBSE|            1529           0.246                               0.880E+002
 RTBSE|            1530           0.246                               0.880E+002
 RTBSE|            1531           0.247                               0.880E+002
 RTBSE|            1532           0.247                               0.880E+002
 RTBSE|            1533           0.246                               0.880E+002
 RTBSE|            1534           0.247                               0.880E+002
 RTBSE|            1535           0.246                               0.880E+002
 RTBSE|            1536           0.246                               0.880E+002
 RTBSE|            1537           0.247                               0.880E+002
 RTBSE|            1538           0.246                               0.880E+002
 RTBSE|            1539           0.249                               0.880E+002
 RTBSE|            1540           0.246                               0.880E+002
 RTBSE|            1541           0.247                               0.880E+002
 RTBSE|            1542           0.246                               0.880E+002
 RTBSE|            1543           0.248                               0.880E+002
 RTBSE|            1544           0.247                               0.880E+002
 RTBSE|            1545           0.248                               0.880E+002
 RTBSE|            1546           0.247                               0.880E+002
 RTBSE|            1547           0.247                               0.880E+002
 RTBSE|            1548           0.246                               0.880E+002
 RTBSE|            1549           0.246                               0.880E+002
 RTBSE|            1550           0.247                               0.880E+002
 RTBSE|            1551           0.248                               0.880E+002
 RTBSE|            1552           0.248                               0.880E+002
 RTBSE|            1553           0.246                               0.880E+002
 RTBSE|            1554           0.245                               0.880E+002
 RTBSE|            1555           0.254                               0.880E+002
 RTBSE|            1556           0.248                               0.880E+002
 RTBSE|            1557           0.247                               0.880E+002
 RTBSE|            1558           0.246                               0.880E+002
 RTBSE|            1559           0.248                               0.880E+002
 RTBSE|            1560           0.246                               0.880E+002
 RTBSE|            1561           0.248                               0.880E+002
 RTBSE|            1562           0.246                               0.880E+002
 RTBSE|            1563           0.248                               0.880E+002
 RTBSE|            1564           0.246                               0.880E+002
 RTBSE|            1565           0.248                               0.880E+002
 RTBSE|            1566           0.247                               0.880E+002
 RTBSE|            1567           0.247                               0.880E+002
 RTBSE|            1568           0.246                               0.880E+002
 RTBSE|            1569           0.246                               0.880E+002
 RTBSE|            1570           0.247                               0.880E+002
 RTBSE|            1571           0.247                               0.880E+002
 RTBSE|            1572           0.248                               0.880E+002
 RTBSE|            1573           0.247                               0.880E+002
 RTBSE|            1574           0.247                               0.880E+002
 RTBSE|            1575           0.248                               0.880E+002
 RTBSE|            1576           0.246                               0.880E+002
 RTBSE|            1577           0.245                               0.880E+002
 RTBSE|            1578           0.246                               0.880E+002
 RTBSE|            1579           0.247                               0.880E+002
 RTBSE|            1580           0.247                               0.880E+002
 RTBSE|            1581           0.246                               0.880E+002
 RTBSE|            1582           0.248                               0.880E+002
 RTBSE|            1583           0.246                               0.880E+002
 RTBSE|            1584           0.247                               0.880E+002
 RTBSE|            1585           0.247                               0.880E+002
 RTBSE|            1586           0.302                               0.880E+002
 RTBSE|            1587           0.247                               0.880E+002
 RTBSE|            1588           0.247                               0.880E+002
 RTBSE|            1589           0.247                               0.880E+002
 RTBSE|            1590           0.247                               0.880E+002
 RTBSE|            1591           0.246                               0.880E+002
 RTBSE|            1592           0.246                               0.880E+002
 RTBSE|            1593           0.247                               0.880E+002
 RTBSE|            1594           0.247                               0.880E+002
 RTBSE|            1595           0.248                               0.880E+002
 RTBSE|            1596           0.253                               0.880E+002
 RTBSE|            1597           0.248                               0.880E+002
 RTBSE|            1598           0.247                               0.880E+002
 RTBSE|            1599           0.247                               0.880E+002
 RTBSE|            1600           0.246                               0.880E+002
 RTBSE|            1601           0.288                               0.880E+002
 RTBSE|            1602           0.248                               0.880E+002
 RTBSE|            1603           0.246                               0.880E+002
 RTBSE|            1604           0.248                               0.880E+002
 RTBSE|            1605           0.304                               0.880E+002
 RTBSE|            1606           0.268                               0.880E+002
 RTBSE|            1607           0.247                               0.880E+002
 RTBSE|            1608           0.247                               0.880E+002
 RTBSE|            1609           0.247                               0.880E+002
 RTBSE|            1610           0.267                               0.880E+002
 RTBSE|            1611           0.247                               0.880E+002
 RTBSE|            1612           0.247                               0.880E+002
 RTBSE|            1613           0.247                               0.880E+002
 RTBSE|            1614           0.252                               0.880E+002
 RTBSE|            1615           0.246                               0.880E+002
 RTBSE|            1616           0.247                               0.880E+002
 RTBSE|            1617           0.247                               0.880E+002
 RTBSE|            1618           0.288                               0.880E+002
 RTBSE|            1619           0.247                               0.880E+002
 RTBSE|            1620           0.246                               0.880E+002
 RTBSE|            1621           0.246                               0.880E+002
 RTBSE|            1622           0.246                               0.880E+002
 RTBSE|            1623           0.247                               0.880E+002
 RTBSE|            1624           0.248                               0.880E+002
 RTBSE|            1625           0.246                               0.880E+002
 RTBSE|            1626           0.248                               0.880E+002
 RTBSE|            1627           0.246                               0.880E+002
 RTBSE|            1628           0.247                               0.880E+002
 RTBSE|            1629           0.248                               0.880E+002
 RTBSE|            1630           0.248                               0.880E+002
 RTBSE|            1631           0.246                               0.880E+002
 RTBSE|            1632           0.246                               0.880E+002
 RTBSE|            1633           0.247                               0.880E+002
 RTBSE|            1634           0.246                               0.880E+002
 RTBSE|            1635           0.247                               0.880E+002
 RTBSE|            1636           0.247                               0.880E+002
 RTBSE|            1637           0.253                               0.880E+002
 RTBSE|            1638           0.248                               0.880E+002
 RTBSE|            1639           0.246                               0.880E+002
 RTBSE|            1640           0.246                               0.880E+002
 RTBSE|            1641           0.247                               0.880E+002
 RTBSE|            1642           0.246                               0.880E+002
 RTBSE|            1643           0.247                               0.880E+002
 RTBSE|            1644           0.248                               0.880E+002
 RTBSE|            1645           0.247                               0.880E+002
 RTBSE|            1646           0.248                               0.880E+002
 RTBSE|            1647           0.247                               0.880E+002
 RTBSE|            1648           0.248                               0.880E+002
 RTBSE|            1649           0.247                               0.880E+002
 RTBSE|            1650           0.247                               0.880E+002
 RTBSE|            1651           0.247                               0.880E+002
 RTBSE|            1652           0.246                               0.880E+002
 RTBSE|            1653           0.246                               0.880E+002
 RTBSE|            1654           0.246                               0.880E+002
 RTBSE|            1655           0.246                               0.880E+002
 RTBSE|            1656           0.245                               0.880E+002
 RTBSE|            1657           0.246                               0.880E+002
 RTBSE|            1658           0.247                               0.880E+002
 RTBSE|            1659           0.247                               0.880E+002
 RTBSE|            1660           0.247                               0.880E+002
 RTBSE|            1661           0.248                               0.880E+002
 RTBSE|            1662           0.246                               0.880E+002
 RTBSE|            1663           0.247                               0.880E+002
 RTBSE|            1664           0.247                               0.880E+002
 RTBSE|            1665           0.247                               0.880E+002
 RTBSE|            1666           0.246                               0.880E+002
 RTBSE|            1667           0.248                               0.880E+002
 RTBSE|            1668           0.246                               0.880E+002
 RTBSE|            1669           0.250                               0.880E+002
 RTBSE|            1670           0.246                               0.880E+002
 RTBSE|            1671           0.248                               0.880E+002
 RTBSE|            1672           0.246                               0.880E+002
 RTBSE|            1673           0.248                               0.880E+002
 RTBSE|            1674           0.247                               0.880E+002
 RTBSE|            1675           0.246                               0.880E+002
 RTBSE|            1676           0.246                               0.880E+002
 RTBSE|            1677           0.246                               0.880E+002
 RTBSE|            1678           0.254                               0.880E+002
 RTBSE|            1679           0.247                               0.880E+002
 RTBSE|            1680           0.247                               0.880E+002
 RTBSE|            1681           0.247                               0.880E+002
 RTBSE|            1682           0.246                               0.880E+002
 RTBSE|            1683           0.247                               0.880E+002
 RTBSE|            1684           0.247                               0.880E+002
 RTBSE|            1685           0.246                               0.880E+002
 RTBSE|            1686           0.246                               0.880E+002
 RTBSE|            1687           0.246                               0.880E+002
 RTBSE|            1688           0.246                               0.880E+002
 RTBSE|            1689           0.247                               0.880E+002
 RTBSE|            1690           0.247                               0.880E+002
 RTBSE|            1691           0.248                               0.880E+002
 RTBSE|            1692           0.246                               0.880E+002
 RTBSE|            1693           0.246                               0.880E+002
 RTBSE|            1694           0.247                               0.880E+002
 RTBSE|            1695           0.247                               0.880E+002
 RTBSE|            1696           0.248                               0.880E+002
 RTBSE|            1697           0.246                               0.880E+002
 RTBSE|            1698           0.246                               0.880E+002
 RTBSE|            1699           0.247                               0.880E+002
 RTBSE|            1700           0.246                               0.880E+002
 RTBSE|            1701           0.247                               0.880E+002
 RTBSE|            1702           0.247                               0.880E+002
 RTBSE|            1703           0.247                               0.880E+002
 RTBSE|            1704           0.247                               0.880E+002
 RTBSE|            1705           0.246                               0.880E+002
 RTBSE|            1706           0.247                               0.880E+002
 RTBSE|            1707           0.247                               0.880E+002
 RTBSE|            1708           0.247                               0.880E+002
 RTBSE|            1709           0.247                               0.880E+002
 RTBSE|            1710           0.247                               0.880E+002
 RTBSE|            1711           0.247                               0.880E+002
 RTBSE|            1712           0.246                               0.880E+002
 RTBSE|            1713           0.247                               0.880E+002
 RTBSE|            1714           0.247                               0.880E+002
 RTBSE|            1715           0.246                               0.880E+002
 RTBSE|            1716           0.248                               0.880E+002
 RTBSE|            1717           0.248                               0.880E+002
 RTBSE|            1718           0.247                               0.880E+002
 RTBSE|            1719           0.252                               0.880E+002
 RTBSE|            1720           0.279                               0.880E+002
 RTBSE|            1721           0.245                               0.880E+002
 RTBSE|            1722           0.247                               0.880E+002
 RTBSE|            1723           0.247                               0.880E+002
 RTBSE|            1724           0.266                               0.880E+002
 RTBSE|            1725           0.310                               0.880E+002
 RTBSE|            1726           0.248                               0.880E+002
 RTBSE|            1727           0.247                               0.880E+002
 RTBSE|            1728           0.247                               0.880E+002
 RTBSE|            1729           0.265                               0.880E+002
 RTBSE|            1730           0.249                               0.880E+002
 RTBSE|            1731           0.246                               0.880E+002
 RTBSE|            1732           0.248                               0.880E+002
 RTBSE|            1733           0.249                               0.880E+002
 RTBSE|            1734           0.248                               0.880E+002
 RTBSE|            1735           0.247                               0.880E+002
 RTBSE|            1736           0.247                               0.880E+002
 RTBSE|            1737           0.290                               0.880E+002
 RTBSE|            1738           0.247                               0.880E+002
 RTBSE|            1739           0.246                               0.880E+002
 RTBSE|            1740           0.247                               0.880E+002
 RTBSE|            1741           0.247                               0.880E+002
 RTBSE|            1742           0.247                               0.880E+002
 RTBSE|            1743           0.247                               0.880E+002
 RTBSE|            1744           0.246                               0.880E+002
 RTBSE|            1745           0.246                               0.880E+002
 RTBSE|            1746           0.246                               0.880E+002
 RTBSE|            1747           0.246                               0.880E+002
 RTBSE|            1748           0.246                               0.880E+002
 RTBSE|            1749           0.246                               0.880E+002
 RTBSE|            1750           0.247                               0.880E+002
 RTBSE|            1751           0.246                               0.880E+002
 RTBSE|            1752           0.247                               0.880E+002
 RTBSE|            1753           0.246                               0.880E+002
 RTBSE|            1754           0.249                               0.880E+002
 RTBSE|            1755           0.246                               0.880E+002
 RTBSE|            1756           0.248                               0.880E+002
 RTBSE|            1757           0.246                               0.880E+002
 RTBSE|            1758           0.247                               0.880E+002
 RTBSE|            1759           0.247                               0.880E+002
 RTBSE|            1760           0.255                               0.880E+002
 RTBSE|            1761           0.248                               0.880E+002
 RTBSE|            1762           0.247                               0.880E+002
 RTBSE|            1763           0.246                               0.880E+002
 RTBSE|            1764           0.247                               0.880E+002
 RTBSE|            1765           0.246                               0.880E+002
 RTBSE|            1766           0.246                               0.880E+002
 RTBSE|            1767           0.246                               0.880E+002
 RTBSE|            1768           0.246                               0.880E+002
 RTBSE|            1769           0.247                               0.880E+002
 RTBSE|            1770           0.247                               0.880E+002
 RTBSE|            1771           0.247                               0.880E+002
 RTBSE|            1772           0.247                               0.880E+002
 RTBSE|            1773           0.248                               0.880E+002
 RTBSE|            1774           0.247                               0.880E+002
 RTBSE|            1775           0.247                               0.880E+002
 RTBSE|            1776           0.246                               0.880E+002
 RTBSE|            1777           0.247                               0.880E+002
 RTBSE|            1778           0.246                               0.880E+002
 RTBSE|            1779           0.248                               0.880E+002
 RTBSE|            1780           0.246                               0.880E+002
 RTBSE|            1781           0.247                               0.880E+002
 RTBSE|            1782           0.246                               0.880E+002
 RTBSE|            1783           0.247                               0.880E+002
 RTBSE|            1784           0.245                               0.880E+002
 RTBSE|            1785           0.246                               0.880E+002
 RTBSE|            1786           0.247                               0.880E+002
 RTBSE|            1787           0.247                               0.880E+002
 RTBSE|            1788           0.247                               0.880E+002
 RTBSE|            1789           0.246                               0.880E+002
 RTBSE|            1790           0.246                               0.880E+002
 RTBSE|            1791           0.246                               0.880E+002
 RTBSE|            1792           0.246                               0.880E+002
 RTBSE|            1793           0.247                               0.880E+002
 RTBSE|            1794           0.246                               0.880E+002
 RTBSE|            1795           0.248                               0.880E+002
 RTBSE|            1796           0.247                               0.880E+002
 RTBSE|            1797           0.248                               0.880E+002
 RTBSE|            1798           0.246                               0.880E+002
 RTBSE|            1799           0.248                               0.880E+002
 RTBSE|            1800           0.246                               0.880E+002
 RTBSE|            1801           0.252                               0.880E+002
 RTBSE|            1802           0.249                               0.880E+002
 RTBSE|            1803           0.247                               0.880E+002
 RTBSE|            1804           0.246                               0.880E+002
 RTBSE|            1805           0.246                               0.880E+002
 RTBSE|            1806           0.247                               0.880E+002
 RTBSE|            1807           0.247                               0.880E+002
 RTBSE|            1808           0.246                               0.880E+002
 RTBSE|            1809           0.246                               0.880E+002
 RTBSE|            1810           0.246                               0.880E+002
 RTBSE|            1811           0.247                               0.880E+002
 RTBSE|            1812           0.246                               0.880E+002
 RTBSE|            1813           0.245                               0.880E+002
 RTBSE|            1814           0.247                               0.880E+002
 RTBSE|            1815           0.246                               0.880E+002
 RTBSE|            1816           0.248                               0.880E+002
 RTBSE|            1817           0.245                               0.880E+002
 RTBSE|            1818           0.247                               0.880E+002
 RTBSE|            1819           0.246                               0.880E+002
 RTBSE|            1820           0.248                               0.880E+002
 RTBSE|            1821           0.246                               0.880E+002
 RTBSE|            1822           0.247                               0.880E+002
 RTBSE|            1823           0.246                               0.880E+002
 RTBSE|            1824           0.248                               0.880E+002
 RTBSE|            1825           0.301                               0.880E+002
 RTBSE|            1826           0.248                               0.880E+002
 RTBSE|            1827           0.246                               0.880E+002
 RTBSE|            1828           0.248                               0.880E+002
 RTBSE|            1829           0.247                               0.880E+002
 RTBSE|            1830           0.246                               0.880E+002
 RTBSE|            1831           0.247                               0.880E+002
 RTBSE|            1832           0.246                               0.880E+002
 RTBSE|            1833           0.246                               0.880E+002
 RTBSE|            1834           0.246                               0.880E+002
 RTBSE|            1835           0.246                               0.880E+002
 RTBSE|            1836           0.247                               0.880E+002
 RTBSE|            1837           0.247                               0.880E+002
 RTBSE|            1838           0.247                               0.880E+002
 RTBSE|            1839           0.275                               0.880E+002
 RTBSE|            1840           0.248                               0.880E+002
 RTBSE|            1841           0.247                               0.880E+002
 RTBSE|            1842           0.249                               0.880E+002
 RTBSE|            1843           0.271                               0.880E+002
 RTBSE|            1844           0.311                               0.880E+002
 RTBSE|            1845           0.246                               0.880E+002
 RTBSE|            1846           0.245                               0.880E+002
 RTBSE|            1847           0.247                               0.880E+002
 RTBSE|            1848           0.268                               0.880E+002
 RTBSE|            1849           0.246                               0.880E+002
 RTBSE|            1850           0.247                               0.880E+002
 RTBSE|            1851           0.247                               0.880E+002
 RTBSE|            1852           0.248                               0.880E+002
 RTBSE|            1853           0.247                               0.880E+002
 RTBSE|            1854           0.247                               0.880E+002
 RTBSE|            1855           0.247                               0.880E+002
 RTBSE|            1856           0.293                               0.880E+002
 RTBSE|            1857           0.246                               0.880E+002
 RTBSE|            1858           0.247                               0.880E+002
 RTBSE|            1859           0.246                               0.880E+002
 RTBSE|            1860           0.247                               0.880E+002
 RTBSE|            1861           0.246                               0.880E+002
 RTBSE|            1862           0.248                               0.880E+002
 RTBSE|            1863           0.246                               0.880E+002
 RTBSE|            1864           0.247                               0.880E+002
 RTBSE|            1865           0.246                               0.880E+002
 RTBSE|            1866           0.247                               0.880E+002
 RTBSE|            1867           0.248                               0.880E+002
 RTBSE|            1868           0.246                               0.880E+002
 RTBSE|            1869           0.247                               0.880E+002
 RTBSE|            1870           0.247                               0.880E+002
 RTBSE|            1871           0.246                               0.880E+002
 RTBSE|            1872           0.247                               0.880E+002
 RTBSE|            1873           0.246                               0.880E+002
 RTBSE|            1874           0.247                               0.880E+002
 RTBSE|            1875           0.247                               0.880E+002
 RTBSE|            1876           0.247                               0.880E+002
 RTBSE|            1877           0.248                               0.880E+002
 RTBSE|            1878           0.248                               0.880E+002
 RTBSE|            1879           0.247                               0.880E+002
 RTBSE|            1880           0.246                               0.880E+002
 RTBSE|            1881           0.246                               0.880E+002
 RTBSE|            1882           0.247                               0.880E+002
 RTBSE|            1883           0.252                               0.880E+002
 RTBSE|            1884           0.249                               0.880E+002
 RTBSE|            1885           0.247                               0.880E+002
 RTBSE|            1886           0.246                               0.880E+002
 RTBSE|            1887           0.246                               0.880E+002
 RTBSE|            1888           0.247                               0.880E+002
 RTBSE|            1889           0.246                               0.880E+002
 RTBSE|            1890           0.247                               0.880E+002
 RTBSE|            1891           0.247                               0.880E+002
 RTBSE|            1892           0.246                               0.880E+002
 RTBSE|            1893           0.246                               0.880E+002
 RTBSE|            1894           0.246                               0.880E+002
 RTBSE|            1895           0.247                               0.880E+002
 RTBSE|            1896           0.245                               0.880E+002
 RTBSE|            1897           0.245                               0.880E+002
 RTBSE|            1898           0.246                               0.880E+002
 RTBSE|            1899           0.248                               0.880E+002
 RTBSE|            1900           0.246                               0.880E+002
 RTBSE|            1901           0.248                               0.880E+002
 RTBSE|            1902           0.245                               0.880E+002
 RTBSE|            1903           0.247                               0.880E+002
 RTBSE|            1904           0.247                               0.880E+002
 RTBSE|            1905           0.248                               0.880E+002
 RTBSE|            1906           0.247                               0.880E+002
 RTBSE|            1907           0.247                               0.880E+002
 RTBSE|            1908           0.246                               0.880E+002
 RTBSE|            1909           0.246                               0.880E+002
 RTBSE|            1910           0.247                               0.880E+002
 RTBSE|            1911           0.246                               0.880E+002
 RTBSE|            1912           0.246                               0.880E+002
 RTBSE|            1913           0.247                               0.880E+002
 RTBSE|            1914           0.246                               0.880E+002
 RTBSE|            1915           0.248                               0.880E+002
 RTBSE|            1916           0.246                               0.880E+002
 RTBSE|            1917           0.246                               0.880E+002
 RTBSE|            1918           0.246                               0.880E+002
 RTBSE|            1919           0.246                               0.880E+002
 RTBSE|            1920           0.247                               0.880E+002
 RTBSE|            1921           0.248                               0.880E+002
 RTBSE|            1922           0.246                               0.880E+002
 RTBSE|            1923           0.247                               0.880E+002
 RTBSE|            1924           0.246                               0.880E+002
 RTBSE|            1925           0.254                               0.880E+002
 RTBSE|            1926           0.248                               0.880E+002
 RTBSE|            1927           0.247                               0.880E+002
 RTBSE|            1928           0.246                               0.880E+002
 RTBSE|            1929           0.246                               0.880E+002
 RTBSE|            1930           0.246                               0.880E+002
 RTBSE|            1931           0.247                               0.880E+002
 RTBSE|            1932           0.246                               0.880E+002
 RTBSE|            1933           0.246                               0.880E+002
 RTBSE|            1934           0.246                               0.880E+002
 RTBSE|            1935           0.247                               0.880E+002
 RTBSE|            1936           0.246                               0.880E+002
 RTBSE|            1937           0.246                               0.880E+002
 RTBSE|            1938           0.247                               0.880E+002
 RTBSE|            1939           0.247                               0.880E+002
 RTBSE|            1940           0.246                               0.880E+002
 RTBSE|            1941           0.246                               0.880E+002
 RTBSE|            1942           0.246                               0.880E+002
 RTBSE|            1943           0.247                               0.880E+002
 RTBSE|            1944           0.248                               0.880E+002
 RTBSE|            1945           0.246                               0.880E+002
 RTBSE|            1946           0.248                               0.880E+002
 RTBSE|            1947           0.248                               0.880E+002
 RTBSE|            1948           0.248                               0.880E+002
 RTBSE|            1949           0.246                               0.880E+002
 RTBSE|            1950           0.248                               0.880E+002
 RTBSE|            1951           0.247                               0.880E+002
 RTBSE|            1952           0.246                               0.880E+002
 RTBSE|            1953           0.246                               0.880E+002
 RTBSE|            1954           0.247                               0.880E+002
 RTBSE|            1955           0.246                               0.880E+002
 RTBSE|            1956           0.247                               0.880E+002
 RTBSE|            1957           0.246                               0.880E+002
 RTBSE|            1958           0.247                               0.880E+002
 RTBSE|            1959           0.276                               0.880E+002
 RTBSE|            1960           0.247                               0.880E+002
 RTBSE|            1961           0.246                               0.880E+002
 RTBSE|            1962           0.247                               0.880E+002
 RTBSE|            1963           0.332                               0.880E+002
 RTBSE|            1964           0.247                               0.880E+002
 RTBSE|            1965           0.247                               0.880E+002
 RTBSE|            1966           0.255                               0.880E+002
 RTBSE|            1967           0.267                               0.880E+002
 RTBSE|            1968           0.247                               0.880E+002
 RTBSE|            1969           0.247                               0.880E+002
 RTBSE|            1970           0.248                               0.880E+002
 RTBSE|            1971           0.248                               0.880E+002
 RTBSE|            1972           0.246                               0.880E+002
 RTBSE|            1973           0.246                               0.880E+002
 RTBSE|            1974           0.246                               0.880E+002
 RTBSE|            1975           0.278                               0.880E+002
 RTBSE|            1976           0.247                               0.880E+002
 RTBSE|            1977           0.247                               0.880E+002
 RTBSE|            1978           0.247                               0.880E+002
 RTBSE|            1979           0.246                               0.880E+002
 RTBSE|            1980           0.247                               0.880E+002
 RTBSE|            1981           0.247                               0.880E+002
 RTBSE|            1982           0.247                               0.880E+002
 RTBSE|            1983           0.247                               0.880E+002
 RTBSE|            1984           0.247                               0.880E+002
 RTBSE|            1985           0.246                               0.880E+002
 RTBSE|            1986           0.248                               0.880E+002
 RTBSE|            1987           0.247                               0.880E+002
 RTBSE|            1988           0.248                               0.880E+002
 RTBSE|            1989           0.245                               0.880E+002
 RTBSE|            1990           0.247                               0.880E+002
 RTBSE|            1991           0.246                               0.880E+002
 RTBSE|            1992           0.246                               0.880E+002
 RTBSE|            1993           0.247                               0.880E+002
 RTBSE|            1994           0.247                               0.880E+002
 RTBSE|            1995           0.247                               0.880E+002
 RTBSE|            1996           0.247                               0.880E+002
 RTBSE|            1997           0.247                               0.880E+002
 RTBSE|            1998           0.246                               0.880E+002
 RTBSE|            1999           0.246                               0.880E+002
 RTBSE|            2000           0.246                               0.880E+002
 RTBSE|            2001           0.246                               0.880E+002
 RTBSE|            2002           0.246                               0.880E+002
 RTBSE|            2003           0.247                               0.880E+002
 RTBSE|            2004           0.248                               0.880E+002
 RTBSE|            2005           0.247                               0.880E+002
 RTBSE|            2006           0.246                               0.880E+002
 RTBSE|            2007           0.253                               0.880E+002
 RTBSE|            2008           0.247                               0.880E+002
 RTBSE|            2009           0.246                               0.880E+002
 RTBSE|            2010           0.245                               0.880E+002
 RTBSE|            2011           0.247                               0.880E+002
 RTBSE|            2012           0.246                               0.880E+002
 RTBSE|            2013           0.247                               0.880E+002
 RTBSE|            2014           0.247                               0.880E+002
 RTBSE|            2015           0.245                               0.880E+002
 RTBSE|            2016           0.247                               0.880E+002
 RTBSE|            2017           0.246                               0.880E+002
 RTBSE|            2018           0.247                               0.880E+002
 RTBSE|            2019           0.246                               0.880E+002
 RTBSE|            2020           0.246                               0.880E+002
 RTBSE|            2021           0.246                               0.880E+002
 RTBSE|            2022           0.246                               0.880E+002
 RTBSE|            2023           0.247                               0.880E+002
 RTBSE|            2024           0.246                               0.880E+002
 RTBSE|            2025           0.246                               0.880E+002
 RTBSE|            2026           0.247                               0.880E+002
 RTBSE|            2027           0.247                               0.880E+002
 RTBSE|            2028           0.247                               0.880E+002
 RTBSE|            2029           0.248                               0.880E+002
 RTBSE|            2030           0.246                               0.880E+002
 RTBSE|            2031           0.247                               0.880E+002
 RTBSE|            2032           0.246                               0.880E+002
 RTBSE|            2033           0.247                               0.880E+002
 RTBSE|            2034           0.246                               0.880E+002
 RTBSE|            2035           0.247                               0.880E+002
 RTBSE|            2036           0.246                               0.880E+002
 RTBSE|            2037           0.247                               0.880E+002
 RTBSE|            2038           0.247                               0.880E+002
 RTBSE|            2039           0.246                               0.880E+002
 RTBSE|            2040           0.248                               0.880E+002
 RTBSE|            2041           0.247                               0.880E+002
 RTBSE|            2042           0.246                               0.880E+002
 RTBSE|            2043           0.246                               0.880E+002
 RTBSE|            2044           0.247                               0.880E+002
 RTBSE|            2045           0.247                               0.880E+002
 RTBSE|            2046           0.246                               0.880E+002
 RTBSE|            2047           0.247                               0.880E+002
 RTBSE|            2048           0.254                               0.880E+002
 RTBSE|            2049           0.250                               0.880E+002
 RTBSE|            2050           0.247                               0.880E+002
 RTBSE|            2051           0.248                               0.880E+002
 RTBSE|            2052           0.246                               0.880E+002
 RTBSE|            2053           0.247                               0.880E+002
 RTBSE|            2054           0.247                               0.880E+002
 RTBSE|            2055           0.246                               0.880E+002
 RTBSE|            2056           0.247                               0.880E+002
 RTBSE|            2057           0.259                               0.880E+002
 RTBSE|            2058           0.246                               0.880E+002
 RTBSE|            2059           0.247                               0.880E+002
 RTBSE|            2060           0.247                               0.880E+002
 RTBSE|            2061           0.247                               0.880E+002
 RTBSE|            2062           0.247                               0.880E+002
 RTBSE|            2063           0.301                               0.880E+002
 RTBSE|            2064           0.247                               0.880E+002
 RTBSE|            2065           0.246                               0.880E+002
 RTBSE|            2066           0.247                               0.880E+002
 RTBSE|            2067           0.248                               0.880E+002
 RTBSE|            2068           0.248                               0.880E+002
 RTBSE|            2069           0.247                               0.880E+002
 RTBSE|            2070           0.248                               0.880E+002
 RTBSE|            2071           0.246                               0.880E+002
 RTBSE|            2072           0.248                               0.880E+002
 RTBSE|            2073           0.247                               0.880E+002
 RTBSE|            2074           0.249                               0.880E+002
 RTBSE|            2075           0.247                               0.880E+002
 RTBSE|            2076           0.247                               0.880E+002
 RTBSE|            2077           0.247                               0.880E+002
 RTBSE|            2078           0.278                               0.880E+002
 RTBSE|            2079           0.247                               0.880E+002
 RTBSE|            2080           0.248                               0.880E+002
 RTBSE|            2081           0.247                               0.880E+002
 RTBSE|            2082           0.320                               0.880E+002
 RTBSE|            2083           0.247                               0.880E+002
 RTBSE|            2084           0.246                               0.880E+002
 RTBSE|            2085           0.247                               0.880E+002
 RTBSE|            2086           0.266                               0.880E+002
 RTBSE|            2087           0.248                               0.880E+002
 RTBSE|            2088           0.246                               0.880E+002
 RTBSE|            2089           0.254                               0.880E+002
 RTBSE|            2090           0.248                               0.880E+002
 RTBSE|            2091           0.246                               0.880E+002
 RTBSE|            2092           0.248                               0.880E+002
 RTBSE|            2093           0.246                               0.880E+002
 RTBSE|            2094           0.279                               0.880E+002
 RTBSE|            2095           0.247                               0.880E+002
 RTBSE|            2096           0.248                               0.880E+002
 RTBSE|            2097           0.247                               0.880E+002
 RTBSE|            2098           0.247                               0.880E+002
 RTBSE|            2099           0.246                               0.880E+002
 RTBSE|            2100           0.247                               0.880E+002
 RTBSE|            2101           0.247                               0.880E+002
 RTBSE|            2102           0.248                               0.880E+002
 RTBSE|            2103           0.247                               0.880E+002
 RTBSE|            2104           0.248                               0.880E+002
 RTBSE|            2105           0.248                               0.880E+002
 RTBSE|            2106           0.247                               0.880E+002
 RTBSE|            2107           0.246                               0.880E+002
 RTBSE|            2108           0.247                               0.880E+002
 RTBSE|            2109           0.246                               0.880E+002
 RTBSE|            2110           0.246                               0.880E+002
 RTBSE|            2111           0.247                               0.880E+002
 RTBSE|            2112           0.249                               0.880E+002
 RTBSE|            2113           0.246                               0.880E+002
 RTBSE|            2114           0.247                               0.880E+002
 RTBSE|            2115           0.246                               0.880E+002
 RTBSE|            2116           0.247                               0.880E+002
 RTBSE|            2117           0.247                               0.880E+002
 RTBSE|            2118           0.247                               0.880E+002
 RTBSE|            2119           0.247                               0.880E+002
 RTBSE|            2120           0.246                               0.880E+002
 RTBSE|            2121           0.245                               0.880E+002
 RTBSE|            2122           0.248                               0.880E+002
 RTBSE|            2123           0.247                               0.880E+002
 RTBSE|            2124           0.248                               0.880E+002
 RTBSE|            2125           0.246                               0.880E+002
 RTBSE|            2126           0.247                               0.880E+002
 RTBSE|            2127           0.246                               0.880E+002
 RTBSE|            2128           0.246                               0.880E+002
 RTBSE|            2129           0.247                               0.880E+002
 RTBSE|            2130           0.255                               0.880E+002
 RTBSE|            2131           0.246                               0.880E+002
 RTBSE|            2132           0.247                               0.880E+002
 RTBSE|            2133           0.248                               0.880E+002
 RTBSE|            2134           0.248                               0.880E+002
 RTBSE|            2135           0.247                               0.880E+002
 RTBSE|            2136           0.248                               0.880E+002
 RTBSE|            2137           0.246                               0.880E+002
 RTBSE|            2138           0.247                               0.880E+002
 RTBSE|            2139           0.248                               0.880E+002
 RTBSE|            2140           0.247                               0.880E+002
 RTBSE|            2141           0.246                               0.880E+002
 RTBSE|            2142           0.246                               0.880E+002
 RTBSE|            2143           0.246                               0.880E+002
 RTBSE|            2144           0.246                               0.880E+002
 RTBSE|            2145           0.247                               0.880E+002
 RTBSE|            2146           0.247                               0.880E+002
 RTBSE|            2147           0.246                               0.880E+002
 RTBSE|            2148           0.247                               0.880E+002
 RTBSE|            2149           0.246                               0.880E+002
 RTBSE|            2150           0.247                               0.880E+002
 RTBSE|            2151           0.246                               0.880E+002
 RTBSE|            2152           0.246                               0.880E+002
 RTBSE|            2153           0.248                               0.880E+002
 RTBSE|            2154           0.246                               0.880E+002
 RTBSE|            2155           0.247                               0.880E+002
 RTBSE|            2156           0.247                               0.880E+002
 RTBSE|            2157           0.248                               0.880E+002
 RTBSE|            2158           0.246                               0.880E+002
 RTBSE|            2159           0.248                               0.880E+002
 RTBSE|            2160           0.247                               0.880E+002
 RTBSE|            2161           0.247                               0.880E+002
 RTBSE|            2162           0.247                               0.880E+002
 RTBSE|            2163           0.247                               0.880E+002
 RTBSE|            2164           0.247                               0.880E+002
 RTBSE|            2165           0.247                               0.880E+002
 RTBSE|            2166           0.246                               0.880E+002
 RTBSE|            2167           0.246                               0.880E+002
 RTBSE|            2168           0.246                               0.880E+002
 RTBSE|            2169           0.248                               0.880E+002
 RTBSE|            2170           0.246                               0.880E+002
 RTBSE|            2171           0.247                               0.880E+002
 RTBSE|            2172           0.254                               0.880E+002
 RTBSE|            2173           0.248                               0.880E+002
 RTBSE|            2174           0.246                               0.880E+002
 RTBSE|            2175           0.247                               0.880E+002
 RTBSE|            2176           0.247                               0.880E+002
 RTBSE|            2177           0.247                               0.880E+002
 RTBSE|            2178           0.247                               0.880E+002
 RTBSE|            2179           0.247                               0.880E+002
 RTBSE|            2180           0.247                               0.880E+002
 RTBSE|            2181           0.246                               0.880E+002
 RTBSE|            2182           0.248                               0.880E+002
 RTBSE|            2183           0.246                               0.880E+002
 RTBSE|            2184           0.246                               0.880E+002
 RTBSE|            2185           0.249                               0.880E+002
 RTBSE|            2186           0.247                               0.880E+002
 RTBSE|            2187           0.247                               0.880E+002
 RTBSE|            2188           0.246                               0.880E+002
 RTBSE|            2189           0.246                               0.880E+002
 RTBSE|            2190           0.245                               0.880E+002
 RTBSE|            2191           0.247                               0.880E+002
 RTBSE|            2192           0.249                               0.880E+002
 RTBSE|            2193           0.247                               0.880E+002
 RTBSE|            2194           0.247                               0.880E+002
 RTBSE|            2195           0.247                               0.880E+002
 RTBSE|            2196           0.247                               0.880E+002
 RTBSE|            2197           0.275                               0.880E+002
 RTBSE|            2198           0.247                               0.880E+002
 RTBSE|            2199           0.247                               0.880E+002
 RTBSE|            2200           0.248                               0.880E+002
 RTBSE|            2201           0.323                               0.880E+002
 RTBSE|            2202           0.247                               0.880E+002
 RTBSE|            2203           0.247                               0.880E+002
 RTBSE|            2204           0.248                               0.880E+002
 RTBSE|            2205           0.266                               0.880E+002
 RTBSE|            2206           0.247                               0.880E+002
 RTBSE|            2207           0.247                               0.880E+002
 RTBSE|            2208           0.246                               0.880E+002
 RTBSE|            2209           0.248                               0.880E+002
 RTBSE|            2210           0.246                               0.880E+002
 RTBSE|            2211           0.246                               0.880E+002
 RTBSE|            2212           0.247                               0.880E+002
 RTBSE|            2213           0.292                               0.880E+002
 RTBSE|            2214           0.249                               0.880E+002
 RTBSE|            2215           0.246                               0.880E+002
 RTBSE|            2216           0.246                               0.880E+002
 RTBSE|            2217           0.247                               0.880E+002
 RTBSE|            2218           0.248                               0.880E+002
 RTBSE|            2219           0.246                               0.880E+002
 RTBSE|            2220           0.247                               0.880E+002
 RTBSE|            2221           0.247                               0.880E+002
 RTBSE|            2222           0.248                               0.880E+002
 RTBSE|            2223           0.246                               0.880E+002
 RTBSE|            2224           0.248                               0.880E+002
 RTBSE|            2225           0.247                               0.880E+002
 RTBSE|            2226           0.246                               0.880E+002
 RTBSE|            2227           0.247                               0.880E+002
 RTBSE|            2228           0.246                               0.880E+002
 RTBSE|            2229           0.246                               0.880E+002
 RTBSE|            2230           0.247                               0.880E+002
 RTBSE|            2231           0.246                               0.880E+002
 RTBSE|            2232           0.246                               0.880E+002
 RTBSE|            2233           0.246                               0.880E+002
 RTBSE|            2234           0.248                               0.880E+002
 RTBSE|            2235           0.246                               0.880E+002
 RTBSE|            2236           0.247                               0.880E+002
 RTBSE|            2237           0.246                               0.880E+002
 RTBSE|            2238           0.248                               0.880E+002
 RTBSE|            2239           0.247                               0.880E+002
 RTBSE|            2240           0.247                               0.880E+002
 RTBSE|            2241           0.247                               0.880E+002
 RTBSE|            2242           0.248                               0.880E+002
 RTBSE|            2243           0.246                               0.880E+002
 RTBSE|            2244           0.247                               0.880E+002
 RTBSE|            2245           0.247                               0.880E+002
 RTBSE|            2246           0.246                               0.880E+002
 RTBSE|            2247           0.247                               0.880E+002
 RTBSE|            2248           0.245                               0.880E+002
 RTBSE|            2249           0.247                               0.880E+002
 RTBSE|            2250           0.247                               0.880E+002
 RTBSE|            2251           0.246                               0.880E+002
 RTBSE|            2252           0.247                               0.880E+002
 RTBSE|            2253           0.246                               0.880E+002
 RTBSE|            2254           0.254                               0.880E+002
 RTBSE|            2255           0.248                               0.880E+002
 RTBSE|            2256           0.247                               0.880E+002
 RTBSE|            2257           0.246                               0.880E+002
 RTBSE|            2258           0.246                               0.880E+002
 RTBSE|            2259           0.247                               0.880E+002
 RTBSE|            2260           0.247                               0.880E+002
 RTBSE|            2261           0.247                               0.880E+002
 RTBSE|            2262           0.246                               0.880E+002
 RTBSE|            2263           0.248                               0.880E+002
 RTBSE|            2264           0.247                               0.880E+002
 RTBSE|            2265           0.249                               0.880E+002
 RTBSE|            2266           0.247                               0.880E+002
 RTBSE|            2267           0.247                               0.880E+002
 RTBSE|            2268           0.246                               0.880E+002
 RTBSE|            2269           0.247                               0.880E+002
 RTBSE|            2270           0.247                               0.880E+002
 RTBSE|            2271           0.246                               0.880E+002
 RTBSE|            2272           0.246                               0.880E+002
 RTBSE|            2273           0.247                               0.880E+002
 RTBSE|            2274           0.246                               0.880E+002
 RTBSE|            2275           0.246                               0.880E+002
 RTBSE|            2276           0.246                               0.880E+002
 RTBSE|            2277           0.246                               0.880E+002
 RTBSE|            2278           0.247                               0.880E+002
 RTBSE|            2279           0.246                               0.880E+002
 RTBSE|            2280           0.247                               0.880E+002
 RTBSE|            2281           0.247                               0.880E+002
 RTBSE|            2282           0.246                               0.880E+002
 RTBSE|            2283           0.248                               0.880E+002
 RTBSE|            2284           0.246                               0.880E+002
 RTBSE|            2285           0.247                               0.880E+002
 RTBSE|            2286           0.247                               0.880E+002
 RTBSE|            2287           0.247                               0.880E+002
 RTBSE|            2288           0.246                               0.880E+002
 RTBSE|            2289           0.248                               0.880E+002
 RTBSE|            2290           0.246                               0.880E+002
 RTBSE|            2291           0.247                               0.880E+002
 RTBSE|            2292           0.246                               0.880E+002
 RTBSE|            2293           0.246                               0.880E+002
 RTBSE|            2294           0.248                               0.880E+002
 RTBSE|            2295           0.253                               0.880E+002
 RTBSE|            2296           0.246                               0.880E+002
 RTBSE|            2297           0.246                               0.880E+002
 RTBSE|            2298           0.246                               0.880E+002
 RTBSE|            2299           0.246                               0.880E+002
 RTBSE|            2300           0.246                               0.880E+002
 RTBSE|            2301           0.246                               0.880E+002
 RTBSE|            2302           0.302                               0.880E+002
 RTBSE|            2303           0.248                               0.880E+002
 RTBSE|            2304           0.247                               0.880E+002
 RTBSE|            2305           0.248                               0.880E+002
 RTBSE|            2306           0.247                               0.880E+002
 RTBSE|            2307           0.246                               0.880E+002
 RTBSE|            2308           0.247                               0.880E+002
 RTBSE|            2309           0.245                               0.880E+002
 RTBSE|            2310           0.246                               0.880E+002
 RTBSE|            2311           0.246                               0.880E+002
 RTBSE|            2312           0.246                               0.880E+002
 RTBSE|            2313           0.247                               0.880E+002
 RTBSE|            2314           0.247                               0.880E+002
 RTBSE|            2315           0.247                               0.880E+002
 RTBSE|            2316           0.277                               0.880E+002
 RTBSE|            2317           0.247                               0.880E+002
 RTBSE|            2318           0.246                               0.880E+002
 RTBSE|            2319           0.247                               0.880E+002
 RTBSE|            2320           0.322                               0.880E+002
 RTBSE|            2321           0.248                               0.880E+002
 RTBSE|            2322           0.247                               0.880E+002
 RTBSE|            2323           0.247                               0.880E+002
 RTBSE|            2324           0.280                               0.880E+002
 RTBSE|            2325           0.248                               0.880E+002
 RTBSE|            2326           0.247                               0.880E+002
 RTBSE|            2327           0.247                               0.880E+002
 RTBSE|            2328           0.249                               0.880E+002
 RTBSE|            2329           0.248                               0.880E+002
 RTBSE|            2330           0.248                               0.880E+002
 RTBSE|            2331           0.247                               0.880E+002
 RTBSE|            2332           0.264                               0.880E+002
 RTBSE|            2333           0.267                               0.880E+002
 RTBSE|            2334           0.248                               0.880E+002
 RTBSE|            2335           0.247                               0.880E+002
 RTBSE|            2336           0.253                               0.880E+002
 RTBSE|            2337           0.247                               0.880E+002
 RTBSE|            2338           0.246                               0.880E+002
 RTBSE|            2339           0.247                               0.880E+002
 RTBSE|            2340           0.247                               0.880E+002
 RTBSE|            2341           0.246                               0.880E+002
 RTBSE|            2342           0.246                               0.880E+002
 RTBSE|            2343           0.246                               0.880E+002
 RTBSE|            2344           0.248                               0.880E+002
 RTBSE|            2345           0.247                               0.880E+002
 RTBSE|            2346           0.248                               0.880E+002
 RTBSE|            2347           0.246                               0.880E+002
 RTBSE|            2348           0.249                               0.880E+002
 RTBSE|            2349           0.246                               0.880E+002
 RTBSE|            2350           0.247                               0.880E+002
 RTBSE|            2351           0.246                               0.880E+002
 RTBSE|            2352           0.247                               0.880E+002
 RTBSE|            2353           0.247                               0.880E+002
 RTBSE|            2354           0.246                               0.880E+002
 RTBSE|            2355           0.246                               0.880E+002
 RTBSE|            2356           0.248                               0.880E+002
 RTBSE|            2357           0.247                               0.880E+002
 RTBSE|            2358           0.246                               0.880E+002
 RTBSE|            2359           0.245                               0.880E+002
 RTBSE|            2360           0.245                               0.880E+002
 RTBSE|            2361           0.246                               0.880E+002
 RTBSE|            2362           0.247                               0.880E+002
 RTBSE|            2363           0.246                               0.880E+002
 RTBSE|            2364           0.246                               0.880E+002
 RTBSE|            2365           0.247                               0.880E+002
 RTBSE|            2366           0.248                               0.880E+002
 RTBSE|            2367           0.247                               0.880E+002
 RTBSE|            2368           0.250                               0.880E+002
 RTBSE|            2369           0.246                               0.880E+002
 RTBSE|            2370           0.247                               0.880E+002
 RTBSE|            2371           0.247                               0.880E+002
 RTBSE|            2372           0.248                               0.880E+002
 RTBSE|            2373           0.247                               0.880E+002
 RTBSE|            2374           0.246                               0.880E+002
 RTBSE|            2375           0.247                               0.880E+002
 RTBSE|            2376           0.246                               0.880E+002
 RTBSE|            2377           0.254                               0.880E+002
 RTBSE|            2378           0.248                               0.880E+002
 RTBSE|            2379           0.247                               0.880E+002
 RTBSE|            2380           0.248                               0.880E+002
 RTBSE|            2381           0.246                               0.880E+002
 RTBSE|            2382           0.246                               0.880E+002
 RTBSE|            2383           0.247                               0.880E+002
 RTBSE|            2384           0.248                               0.880E+002
 RTBSE|            2385           0.246                               0.880E+002
 RTBSE|            2386           0.246                               0.880E+002
 RTBSE|            2387           0.247                               0.880E+002
 RTBSE|            2388           0.246                               0.880E+002
 RTBSE|            2389           0.248                               0.880E+002
 RTBSE|            2390           0.246                               0.880E+002
 RTBSE|            2391           0.247                               0.880E+002
 RTBSE|            2392           0.247                               0.880E+002
 RTBSE|            2393           0.247                               0.880E+002
 RTBSE|            2394           0.247                               0.880E+002
 RTBSE|            2395           0.246                               0.880E+002
 RTBSE|            2396           0.246                               0.880E+002
 RTBSE|            2397           0.247                               0.880E+002
 RTBSE|            2398           0.247                               0.880E+002
 RTBSE|            2399           0.248                               0.880E+002
 RTBSE|            2400           0.246                               0.880E+002
 RTBSE|            2401           0.246                               0.880E+002
 RTBSE|            2402           0.246                               0.880E+002
 RTBSE|            2403           0.246                               0.880E+002
 RTBSE|            2404           0.246                               0.880E+002
 RTBSE|            2405           0.246                               0.880E+002
 RTBSE|            2406           0.246                               0.880E+002
 RTBSE|            2407           0.246                               0.880E+002
 RTBSE|            2408           0.247                               0.880E+002
 RTBSE|            2409           0.249                               0.880E+002
 RTBSE|            2410           0.246                               0.880E+002
 RTBSE|            2411           0.247                               0.880E+002
 RTBSE|            2412           0.246                               0.880E+002
 RTBSE|            2413           0.248                               0.880E+002
 RTBSE|            2414           0.247                               0.880E+002
 RTBSE|            2415           0.246                               0.880E+002
 RTBSE|            2416           0.246                               0.880E+002
 RTBSE|            2417           0.246                               0.880E+002
 RTBSE|            2418           0.246                               0.880E+002
 RTBSE|            2419           0.252                               0.880E+002
 RTBSE|            2420           0.247                               0.880E+002
 RTBSE|            2421           0.246                               0.880E+002
 RTBSE|            2422           0.246                               0.880E+002
 RTBSE|            2423           0.247                               0.880E+002
 RTBSE|            2424           0.248                               0.880E+002
 RTBSE|            2425           0.246                               0.880E+002
 RTBSE|            2426           0.245                               0.880E+002
 RTBSE|            2427           0.246                               0.880E+002
 RTBSE|            2428           0.245                               0.880E+002
 RTBSE|            2429           0.247                               0.880E+002
 RTBSE|            2430           0.248                               0.880E+002
 RTBSE|            2431           0.246                               0.880E+002
 RTBSE|            2432           0.246                               0.880E+002
 RTBSE|            2433           0.246                               0.880E+002
 RTBSE|            2434           0.246                               0.880E+002
 RTBSE|            2435           0.276                               0.880E+002
 RTBSE|            2436           0.247                               0.880E+002
 RTBSE|            2437           0.247                               0.880E+002
 RTBSE|            2438           0.247                               0.880E+002
 RTBSE|            2439           0.309                               0.880E+002
 RTBSE|            2440           0.261                               0.880E+002
 RTBSE|            2441           0.247                               0.880E+002
 RTBSE|            2442           0.247                               0.880E+002
 RTBSE|            2443           0.263                               0.880E+002
 RTBSE|            2444           0.249                               0.880E+002
 RTBSE|            2445           0.247                               0.880E+002
 RTBSE|            2446           0.248                               0.880E+002
 RTBSE|            2447           0.246                               0.880E+002
 RTBSE|            2448           0.247                               0.880E+002
 RTBSE|            2449           0.246                               0.880E+002
 RTBSE|            2450           0.247                               0.880E+002
 RTBSE|            2451           0.249                               0.880E+002
 RTBSE|            2452           0.274                               0.880E+002
 RTBSE|            2453           0.246                               0.880E+002
 RTBSE|            2454           0.247                               0.880E+002
 RTBSE|            2455           0.246                               0.880E+002
 RTBSE|            2456           0.246                               0.880E+002
 RTBSE|            2457           0.245                               0.880E+002
 RTBSE|            2458           0.248                               0.880E+002
 RTBSE|            2459           0.246                               0.880E+002
 RTBSE|            2460           0.253                               0.880E+002
 RTBSE|            2461           0.248                               0.880E+002
 RTBSE|            2462           0.247                               0.880E+002
 RTBSE|            2463           0.247                               0.880E+002
 RTBSE|            2464           0.246                               0.880E+002
 RTBSE|            2465           0.246                               0.880E+002
 RTBSE|            2466           0.246                               0.880E+002
 RTBSE|            2467           0.246                               0.880E+002
 RTBSE|            2468           0.247                               0.880E+002
 RTBSE|            2469           0.246                               0.880E+002
 RTBSE|            2470           0.247                               0.880E+002
 RTBSE|            2471           0.246                               0.880E+002
 RTBSE|            2472           0.247                               0.880E+002
 RTBSE|            2473           0.247                               0.880E+002
 RTBSE|            2474           0.247                               0.880E+002
 RTBSE|            2475           0.246                               0.880E+002
 RTBSE|            2476           0.246                               0.880E+002
 RTBSE|            2477           0.246                               0.880E+002
 RTBSE|            2478           0.249                               0.880E+002
 RTBSE|            2479           0.246                               0.880E+002
 RTBSE|            2480           0.246                               0.880E+002
 RTBSE|            2481           0.246                               0.880E+002
 RTBSE|            2482           0.246                               0.880E+002
 RTBSE|            2483           0.246                               0.880E+002
 RTBSE|            2484           0.246                               0.880E+002
 RTBSE|            2485           0.246                               0.880E+002
 RTBSE|            2486           0.247                               0.880E+002
 RTBSE|            2487           0.247                               0.880E+002
 RTBSE|            2488           0.247                               0.880E+002
 RTBSE|            2489           0.246                               0.880E+002
 RTBSE|            2490           0.247                               0.880E+002
 RTBSE|            2491           0.247                               0.880E+002
 RTBSE|            2492           0.247                               0.880E+002
 RTBSE|            2493           0.249                               0.880E+002
 RTBSE|            2494           0.246                               0.880E+002
 RTBSE|            2495           0.246                               0.880E+002
 RTBSE|            2496           0.247                               0.880E+002
 RTBSE|            2497           0.247                               0.880E+002
 RTBSE|            2498           0.247                               0.880E+002
 RTBSE|            2499           0.247                               0.880E+002
 RTBSE|            2500           0.247                               0.880E+002
 RTBSE|            2501           0.254                               0.880E+002
 RTBSE|            2502           0.248                               0.880E+002
 RTBSE|            2503           0.247                               0.880E+002
 RTBSE|            2504           0.246                               0.880E+002
 RTBSE|            2505           0.246                               0.880E+002
 RTBSE|            2506           0.246                               0.880E+002
 RTBSE|            2507           0.246                               0.880E+002
 RTBSE|            2508           0.246                               0.880E+002
 RTBSE|            2509           0.247                               0.880E+002
 RTBSE|            2510           0.246                               0.880E+002
 RTBSE|            2511           0.246                               0.880E+002
 RTBSE|            2512           0.247                               0.880E+002
 RTBSE|            2513           0.247                               0.880E+002
 RTBSE|            2514           0.245                               0.880E+002
 RTBSE|            2515           0.248                               0.880E+002
 RTBSE|            2516           0.247                               0.880E+002
 RTBSE|            2517           0.248                               0.880E+002
 RTBSE|            2518           0.246                               0.880E+002
 RTBSE|            2519           0.247                               0.880E+002
 RTBSE|            2520           0.246                               0.880E+002
 RTBSE|            2521           0.247                               0.880E+002
 RTBSE|            2522           0.246                               0.880E+002
 RTBSE|            2523           0.246                               0.880E+002
 RTBSE|            2524           0.246                               0.880E+002
 RTBSE|            2525           0.246                               0.880E+002
 RTBSE|            2526           0.246                               0.880E+002
 RTBSE|            2527           0.247                               0.880E+002
 RTBSE|            2528           0.247                               0.880E+002
 RTBSE|            2529           0.245                               0.880E+002
 RTBSE|            2530           0.246                               0.880E+002
 RTBSE|            2531           0.247                               0.880E+002
 RTBSE|            2532           0.246                               0.880E+002
 RTBSE|            2533           0.246                               0.880E+002
 RTBSE|            2534           0.246                               0.880E+002
 RTBSE|            2535           0.247                               0.880E+002
 RTBSE|            2536           0.246                               0.880E+002
 RTBSE|            2537           0.247                               0.880E+002
 RTBSE|            2538           0.246                               0.880E+002
 RTBSE|            2539           0.247                               0.880E+002
 RTBSE|            2540           0.247                               0.880E+002
 RTBSE|            2541           0.303                               0.880E+002
 RTBSE|            2542           0.252                               0.880E+002
 RTBSE|            2543           0.250                               0.880E+002
 RTBSE|            2544           0.247                               0.880E+002
 RTBSE|            2545           0.246                               0.880E+002
 RTBSE|            2546           0.246                               0.880E+002
 RTBSE|            2547           0.247                               0.880E+002
 RTBSE|            2548           0.246                               0.880E+002
 RTBSE|            2549           0.247                               0.880E+002
 RTBSE|            2550           0.246                               0.880E+002
 RTBSE|            2551           0.247                               0.880E+002
 RTBSE|            2552           0.246                               0.880E+002
 RTBSE|            2553           0.246                               0.880E+002
 RTBSE|            2554           0.282                               0.880E+002
 RTBSE|            2555           0.247                               0.880E+002
 RTBSE|            2556           0.248                               0.880E+002
 RTBSE|            2557           0.246                               0.880E+002
 RTBSE|            2558           0.324                               0.880E+002
 RTBSE|            2559           0.249                               0.880E+002
 RTBSE|            2560           0.247                               0.880E+002
 RTBSE|            2561           0.247                               0.880E+002
 RTBSE|            2562           0.265                               0.880E+002
 RTBSE|            2563           0.248                               0.880E+002
 RTBSE|            2564           0.248                               0.880E+002
 RTBSE|            2565           0.248                               0.880E+002
 RTBSE|            2566           0.248                               0.880E+002
 RTBSE|            2567           0.247                               0.880E+002
 RTBSE|            2568           0.247                               0.880E+002
 RTBSE|            2569           0.247                               0.880E+002
 RTBSE|            2570           0.262                               0.880E+002
 RTBSE|            2571           0.263                               0.880E+002
 RTBSE|            2572           0.246                               0.880E+002
 RTBSE|            2573           0.247                               0.880E+002
 RTBSE|            2574           0.247                               0.880E+002
 RTBSE|            2575           0.247                               0.880E+002
 RTBSE|            2576           0.246                               0.880E+002
 RTBSE|            2577           0.248                               0.880E+002
 RTBSE|            2578           0.246                               0.880E+002
 RTBSE|            2579           0.247                               0.880E+002
 RTBSE|            2580           0.248                               0.880E+002
 RTBSE|            2581           0.246                               0.880E+002
 RTBSE|            2582           0.247                               0.880E+002
 RTBSE|            2583           0.254                               0.880E+002
 RTBSE|            2584           0.247                               0.880E+002
 RTBSE|            2585           0.246                               0.880E+002
 RTBSE|            2586           0.246                               0.880E+002
 RTBSE|            2587           0.246                               0.880E+002
 RTBSE|            2588           0.248                               0.880E+002
 RTBSE|            2589           0.246                               0.880E+002
 RTBSE|            2590           0.248                               0.880E+002
 RTBSE|            2591           0.247                               0.880E+002
 RTBSE|            2592           0.246                               0.880E+002
 RTBSE|            2593           0.245                               0.880E+002
 RTBSE|            2594           0.247                               0.880E+002
 RTBSE|            2595           0.246                               0.880E+002
 RTBSE|            2596           0.247                               0.880E+002
 RTBSE|            2597           0.246                               0.880E+002
 RTBSE|            2598           0.247                               0.880E+002
 RTBSE|            2599           0.246                               0.880E+002
 RTBSE|            2600           0.248                               0.880E+002
 RTBSE|            2601           0.250                               0.880E+002
 RTBSE|            2602           0.250                               0.880E+002
 RTBSE|            2603           0.248                               0.880E+002
 RTBSE|            2604           0.248                               0.880E+002
 RTBSE|            2605           0.248                               0.880E+002
 RTBSE|            2606           0.248                               0.880E+002
 RTBSE|            2607           0.247                               0.880E+002
 RTBSE|            2608           0.247                               0.880E+002
 RTBSE|            2609           0.247                               0.880E+002
 RTBSE|            2610           0.248                               0.880E+002
 RTBSE|            2611           0.247                               0.880E+002
 RTBSE|            2612           0.247                               0.880E+002
 RTBSE|            2613           0.248                               0.880E+002
 RTBSE|            2614           0.247                               0.880E+002
 RTBSE|            2615           0.247                               0.880E+002
 RTBSE|            2616           0.246                               0.880E+002
 RTBSE|            2617           0.246                               0.880E+002
 RTBSE|            2618           0.247                               0.880E+002
 RTBSE|            2619           0.246                               0.880E+002
 RTBSE|            2620           0.249                               0.880E+002
 RTBSE|            2621           0.246                               0.880E+002
 RTBSE|            2622           0.248                               0.880E+002
 RTBSE|            2623           0.246                               0.880E+002
 RTBSE|            2624           0.252                               0.880E+002
 RTBSE|            2625           0.249                               0.880E+002
 RTBSE|            2626           0.248                               0.880E+002
 RTBSE|            2627           0.247                               0.880E+002
 RTBSE|            2628           0.246                               0.880E+002
 RTBSE|            2629           0.247                               0.880E+002
 RTBSE|            2630           0.246                               0.880E+002
 RTBSE|            2631           0.246                               0.880E+002
 RTBSE|            2632           0.246                               0.880E+002
 RTBSE|            2633           0.248                               0.880E+002
 RTBSE|            2634           0.247                               0.880E+002
 RTBSE|            2635           0.247                               0.880E+002
 RTBSE|            2636           0.248                               0.880E+002
 RTBSE|            2637           0.247                               0.880E+002
 RTBSE|            2638           0.246                               0.880E+002
 RTBSE|            2639           0.246                               0.880E+002
 RTBSE|            2640           0.247                               0.880E+002
 RTBSE|            2641           0.249                               0.880E+002
 RTBSE|            2642           0.246                               0.880E+002
 RTBSE|            2643           0.248                               0.880E+002
 RTBSE|            2644           0.247                               0.880E+002
 RTBSE|            2645           0.249                               0.880E+002
 RTBSE|            2646           0.246                               0.880E+002
 RTBSE|            2647           0.248                               0.880E+002
 RTBSE|            2648           0.247                               0.880E+002
 RTBSE|            2649           0.246                               0.880E+002
 RTBSE|            2650           0.248                               0.880E+002
 RTBSE|            2651           0.246                               0.880E+002
 RTBSE|            2652           0.247                               0.880E+002
 RTBSE|            2653           0.248                               0.880E+002
 RTBSE|            2654           0.247                               0.880E+002
 RTBSE|            2655           0.247                               0.880E+002
 RTBSE|            2656           0.247                               0.880E+002
 RTBSE|            2657           0.246                               0.880E+002
 RTBSE|            2658           0.246                               0.880E+002
 RTBSE|            2659           0.246                               0.880E+002
 RTBSE|            2660           0.247                               0.880E+002
 RTBSE|            2661           0.248                               0.880E+002
 RTBSE|            2662           0.247                               0.880E+002
 RTBSE|            2663           0.248                               0.880E+002
 RTBSE|            2664           0.246                               0.880E+002
 RTBSE|            2665           0.249                               0.880E+002
 RTBSE|            2666           0.253                               0.880E+002
 RTBSE|            2667           0.248                               0.880E+002
 RTBSE|            2668           0.247                               0.880E+002
 RTBSE|            2669           0.246                               0.880E+002
 RTBSE|            2670           0.247                               0.880E+002
 RTBSE|            2671           0.247                               0.880E+002
 RTBSE|            2672           0.246                               0.880E+002
 RTBSE|            2673           0.261                               0.880E+002
 RTBSE|            2674           0.247                               0.880E+002
 RTBSE|            2675           0.247                               0.880E+002
 RTBSE|            2676           0.245                               0.880E+002
 RTBSE|            2677           0.246                               0.880E+002
 RTBSE|            2678           0.247                               0.880E+002
 RTBSE|            2679           0.246                               0.880E+002
 RTBSE|            2680           0.246                               0.880E+002
 RTBSE|            2681           0.246                               0.880E+002
 RTBSE|            2682           0.247                               0.880E+002
 RTBSE|            2683           0.246                               0.880E+002
 RTBSE|            2684           0.247                               0.880E+002
 RTBSE|            2685           0.247                               0.880E+002
 RTBSE|            2686           0.248                               0.880E+002
 RTBSE|            2687           0.246                               0.880E+002
 RTBSE|            2688           0.247                               0.880E+002
 RTBSE|            2689           0.246                               0.880E+002
 RTBSE|            2690           0.248                               0.880E+002
 RTBSE|            2691           0.247                               0.880E+002
 RTBSE|            2692           0.247                               0.880E+002
 RTBSE|            2693           0.247                               0.880E+002
 RTBSE|            2694           0.246                               0.880E+002
 RTBSE|            2695           0.246                               0.880E+002
 RTBSE|            2696           0.247                               0.880E+002
 RTBSE|            2697           0.245                               0.880E+002
 RTBSE|            2698           0.246                               0.880E+002
 RTBSE|            2699           0.246                               0.880E+002
 RTBSE|            2700           0.247                               0.880E+002
 RTBSE|            2701           0.247                               0.880E+002
 RTBSE|            2702           0.248                               0.880E+002
 RTBSE|            2703           0.246                               0.880E+002
 RTBSE|            2704           0.246                               0.880E+002
 RTBSE|            2705           0.247                               0.880E+002
 RTBSE|            2706           0.247                               0.880E+002
 RTBSE|            2707           0.254                               0.880E+002
 RTBSE|            2708           0.250                               0.880E+002
 RTBSE|            2709           0.247                               0.880E+002
 RTBSE|            2710           0.247                               0.880E+002
 RTBSE|            2711           0.247                               0.880E+002
 RTBSE|            2712           0.248                               0.880E+002
 RTBSE|            2713           0.246                               0.880E+002
 RTBSE|            2714           0.247                               0.880E+002
 RTBSE|            2715           0.247                               0.880E+002
 RTBSE|            2716           0.248                               0.880E+002
 RTBSE|            2717           0.247                               0.880E+002
 RTBSE|            2718           0.247                               0.880E+002
 RTBSE|            2719           0.246                               0.880E+002
 RTBSE|            2720           0.246                               0.880E+002
 RTBSE|            2721           0.247                               0.880E+002
 RTBSE|            2722           0.247                               0.880E+002
 RTBSE|            2723           0.248                               0.880E+002
 RTBSE|            2724           0.247                               0.880E+002
 RTBSE|            2725           0.247                               0.880E+002
 RTBSE|            2726           0.246                               0.880E+002
 RTBSE|            2727           0.247                               0.880E+002
 RTBSE|            2728           0.246                               0.880E+002
 RTBSE|            2729           0.247                               0.880E+002
 RTBSE|            2730           0.246                               0.880E+002
 RTBSE|            2731           0.248                               0.880E+002
 RTBSE|            2732           0.246                               0.880E+002
 RTBSE|            2733           0.247                               0.880E+002
 RTBSE|            2734           0.247                               0.880E+002
 RTBSE|            2735           0.247                               0.880E+002
 RTBSE|            2736           0.247                               0.880E+002
 RTBSE|            2737           0.247                               0.880E+002
 RTBSE|            2738           0.246                               0.880E+002
 RTBSE|            2739           0.247                               0.880E+002
 RTBSE|            2740           0.246                               0.880E+002
 RTBSE|            2741           0.246                               0.880E+002
 RTBSE|            2742           0.249                               0.880E+002
 RTBSE|            2743           0.248                               0.880E+002
 RTBSE|            2744           0.245                               0.880E+002
 RTBSE|            2745           0.247                               0.880E+002
 RTBSE|            2746           0.247                               0.880E+002
 RTBSE|            2747           0.247                               0.880E+002
 RTBSE|            2748           0.252                               0.880E+002
 RTBSE|            2749           0.249                               0.880E+002
 RTBSE|            2750           0.247                               0.880E+002
 RTBSE|            2751           0.248                               0.880E+002
 RTBSE|            2752           0.246                               0.880E+002
 RTBSE|            2753           0.247                               0.880E+002
 RTBSE|            2754           0.246                               0.880E+002
 RTBSE|            2755           0.247                               0.880E+002
 RTBSE|            2756           0.245                               0.880E+002
 RTBSE|            2757           0.247                               0.880E+002
 RTBSE|            2758           0.246                               0.880E+002
 RTBSE|            2759           0.246                               0.880E+002
 RTBSE|            2760           0.247                               0.880E+002
 RTBSE|            2761           0.245                               0.880E+002
 RTBSE|            2762           0.246                               0.880E+002
 RTBSE|            2763           0.245                               0.880E+002
 RTBSE|            2764           0.246                               0.880E+002
 RTBSE|            2765           0.246                               0.880E+002
 RTBSE|            2766           0.246                               0.880E+002
 RTBSE|            2767           0.246                               0.880E+002
 RTBSE|            2768           0.246                               0.880E+002
 RTBSE|            2769           0.246                               0.880E+002
 RTBSE|            2770           0.248                               0.880E+002
 RTBSE|            2771           0.246                               0.880E+002
 RTBSE|            2772           0.248                               0.880E+002
 RTBSE|            2773           0.246                               0.880E+002
 RTBSE|            2774           0.247                               0.880E+002
 RTBSE|            2775           0.246                               0.880E+002
 RTBSE|            2776           0.248                               0.880E+002
 RTBSE|            2777           0.247                               0.880E+002
 RTBSE|            2778           0.246                               0.880E+002
 RTBSE|            2779           0.247                               0.880E+002
 RTBSE|            2780           0.301                               0.880E+002
 RTBSE|            2781           0.249                               0.880E+002
 RTBSE|            2782           0.247                               0.880E+002
 RTBSE|            2783           0.246                               0.880E+002
 RTBSE|            2784           0.246                               0.880E+002
 RTBSE|            2785           0.248                               0.880E+002
 RTBSE|            2786           0.247                               0.880E+002
 RTBSE|            2787           0.246                               0.880E+002
 RTBSE|            2788           0.247                               0.880E+002
 RTBSE|            2789           0.253                               0.880E+002
 RTBSE|            2790           0.247                               0.880E+002
 RTBSE|            2791           0.247                               0.880E+002
 RTBSE|            2792           0.248                               0.880E+002
 RTBSE|            2793           0.281                               0.880E+002
 RTBSE|            2794           0.247                               0.880E+002
 RTBSE|            2795           0.247                               0.880E+002
 RTBSE|            2796           0.247                               0.880E+002
 RTBSE|            2797           0.330                               0.880E+002
 RTBSE|            2798           0.248                               0.880E+002
 RTBSE|            2799           0.247                               0.880E+002
 RTBSE|            2800           0.247                               0.880E+002
 RTBSE|            2801           0.267                               0.880E+002
 RTBSE|            2802           0.247                               0.880E+002
 RTBSE|            2803           0.247                               0.880E+002
 RTBSE|            2804           0.246                               0.880E+002
 RTBSE|            2805           0.247                               0.880E+002
 RTBSE|            2806           0.247                               0.880E+002
 RTBSE|            2807           0.247                               0.880E+002
 RTBSE|            2808           0.246                               0.880E+002
 RTBSE|            2809           0.247                               0.880E+002
 RTBSE|            2810           0.283                               0.880E+002
 RTBSE|            2811           0.246                               0.880E+002
 RTBSE|            2812           0.247                               0.880E+002
 RTBSE|            2813           0.247                               0.880E+002
 RTBSE|            2814           0.249                               0.880E+002
 RTBSE|            2815           0.247                               0.880E+002
 RTBSE|            2816           0.248                               0.880E+002
 RTBSE|            2817           0.245                               0.880E+002
 RTBSE|            2818           0.248                               0.880E+002
 RTBSE|            2819           0.246                               0.880E+002
 RTBSE|            2820           0.247                               0.880E+002
 RTBSE|            2821           0.248                               0.880E+002
 RTBSE|            2822           0.247                               0.880E+002
 RTBSE|            2823           0.246                               0.880E+002
 RTBSE|            2824           0.248                               0.880E+002
 RTBSE|            2825           0.248                               0.880E+002
 RTBSE|            2826           0.246                               0.880E+002
 RTBSE|            2827           0.246                               0.880E+002
 RTBSE|            2828           0.247                               0.880E+002
 RTBSE|            2829           0.247                               0.880E+002
 RTBSE|            2830           0.255                               0.880E+002
 RTBSE|            2831           0.248                               0.880E+002
 RTBSE|            2832           0.247                               0.880E+002
 RTBSE|            2833           0.246                               0.880E+002
 RTBSE|            2834           0.247                               0.880E+002
 RTBSE|            2835           0.247                               0.880E+002
 RTBSE|            2836           0.247                               0.880E+002
 RTBSE|            2837           0.246                               0.880E+002
 RTBSE|            2838           0.247                               0.880E+002
 RTBSE|            2839           0.246                               0.880E+002
 RTBSE|            2840           0.246                               0.880E+002
 RTBSE|            2841           0.247                               0.880E+002
 RTBSE|            2842           0.249                               0.880E+002
 RTBSE|            2843           0.247                               0.880E+002
 RTBSE|            2844           0.247                               0.880E+002
 RTBSE|            2845           0.248                               0.880E+002
 RTBSE|            2846           0.246                               0.880E+002
 RTBSE|            2847           0.247                               0.880E+002
 RTBSE|            2848           0.246                               0.880E+002
 RTBSE|            2849           0.246                               0.880E+002
 RTBSE|            2850           0.246                               0.880E+002
 RTBSE|            2851           0.246                               0.880E+002
 RTBSE|            2852           0.247                               0.880E+002
 RTBSE|            2853           0.247                               0.880E+002
 RTBSE|            2854           0.247                               0.880E+002
 RTBSE|            2855           0.248                               0.880E+002
 RTBSE|            2856           0.247                               0.880E+002
  GREENX FT_PADE| n_pade, n_fit, window [eV]   484     968     0.0000    19.9960
  GREENX FT_PADE| n_pade, n_fit, window [eV]   484     968     0.0000    19.9960
  GREENX FT_PADE| n_pade, n_fit, window [eV]   484     968     0.0000    19.9960
 STATIC_POL|         spin  element Re [a.u.]              Im [a.u.]
 STATIC_POL|            1    1,  2     -3.2381606700E-002     -4.9615282269E-015
 STATIC_POL|            1    2,  2      6.1786217537E+002      2.8114019234E-013
 STATIC_POL|            1    3,  2     -2.6706731382E-002     -1.2648955361E-015

 -------------------------------------------------------------------------------
 -                                                                             -
 -                                DBCSR STATISTICS                             -
 -                                                                             -
 -------------------------------------------------------------------------------
 COUNTER                                    TOTAL       BLAS       SMM       ACC
 flops     6 x     6 x    36              1057536       0.0%    100.0%      0.0%     
 flops     6 x    32 x     6              1179648       0.0%    100.0%      0.0%     
 flops     6 x     6 x    64              1880064       0.0%    100.0%      0.0%     
 flops     3 x     3 x     5              3152520       0.0%    100.0%      0.0%     
 flops    13 x     6 x    36              3773952       0.0%    100.0%      0.0%     
 flops     6 x    13 x    36              3773952       0.0%    100.0%      0.0%     
 flops    13 x    32 x     6              4472832       0.0%    100.0%      0.0%     
 flops     6 x    32 x    13              4472832       0.0%    100.0%      0.0%     
 flops    13 x     6 x    64              6709248       0.0%    100.0%      0.0%     
 flops     6 x    13 x    64              6709248       0.0%    100.0%      0.0%     
 flops    13 x    13 x    36             14820624       0.0%    100.0%      0.0%     
 flops     3 x    27 x     5             16212960       0.0%    100.0%      0.0%     
 flops    13 x    32 x    13             16959488       0.0%    100.0%      0.0%     
 flops    27 x     3 x     5             17418240       0.0%    100.0%      0.0%     
 flops     5 x     5 x     3             23634900       0.0%    100.0%      0.0%     
 flops     3 x     5 x     5             24641700       0.0%    100.0%      0.0%     
 flops     3 x     5 x     3             24706710       0.0%    100.0%      0.0%     
 flops    13 x    13 x    64             26347776       0.0%    100.0%      0.0%     
 flops     3 x     3 x    30             37784880       0.0%    100.0%      0.0%     
 flops     3 x    32 x     5             67253760       0.0%    100.0%      0.0%     
 flops    32 x     3 x     5             72253440       0.0%    100.0%      0.0%     
 flops    27 x    27 x     5             89579520       0.0%    100.0%      0.0%     
 flops     5 x     5 x    27            120204000       0.0%    100.0%      0.0%     
 flops    27 x     5 x     3            126027900       0.0%    100.0%      0.0%     
 flops    27 x     5 x     5            126748800       0.0%    100.0%      0.0%     
 flops     3 x     5 x    27            129787110       0.0%    100.0%      0.0%     
 flops     3 x    27 x    30            194322240       0.0%    100.0%      0.0%     
 flops    27 x     3 x    30            200309760       0.0%    100.0%      0.0%     
 flops    30 x     5 x     3            248169600       0.0%    100.0%      0.0%     
 flops     5 x    30 x     3            248686200       0.0%    100.0%      0.0%     
 flops     3 x    30 x     3            261406980       0.0%    100.0%      0.0%     
 flops     3 x    30 x     5            264357900       0.0%    100.0%      0.0%     
 flops     3 x     5 x    30            264398400       0.0%    100.0%      0.0%     
 flops     3 x     3 x   230            272643840       0.0%    100.0%      0.0%     
 flops    32 x    27 x     5            371589120       0.0%    100.0%      0.0%     
 flops    27 x    32 x     5            371589120       0.0%    100.0%      0.0%     
 flops     5 x     5 x    32            506624000       0.0%    100.0%      0.0%     
 flops    32 x     5 x     5            525772800       0.0%    100.0%      0.0%     
 flops    32 x     5 x     3            533570880       0.0%    100.0%      0.0%     
 flops     3 x     5 x    32            547373760       0.0%    100.0%      0.0%     
 flops    27 x     5 x    27            661654980       0.0%    100.0%      0.0%     
 flops     3 x    32 x    30            806077440       0.0%    100.0%      0.0%     
 flops    32 x     3 x    30            830914560       0.0%    100.0%      0.0%     
 flops    27 x    27 x    30           1030164480       0.0%    100.0%      0.0%     
 flops    30 x     5 x    27           1262142000       0.0%    100.0%      0.0%     
 flops     5 x    30 x    27           1268395200       0.0%    100.0%      0.0%     
 flops    27 x    30 x     3           1334521980       0.0%    100.0%      0.0%     
 flops    27 x    30 x     5           1359633600       0.0%    100.0%      0.0%     
 flops    27 x     5 x    30           1359763200       0.0%    100.0%      0.0%     
 flops     3 x    30 x    27           1369965960       0.0%    100.0%      0.0%     
 flops     3 x    27 x   230           1402168320       0.0%    100.0%      0.0%     
 flops    27 x     3 x   230           1402168320       0.0%    100.0%      0.0%     
 flops    32 x    32 x     5           1541406720       0.0%    100.0%      0.0%     
 flops    30 x    30 x     3           2611224000       0.0%    100.0%      0.0%     
 flops    27 x     5 x    32           2790072000       0.0%    100.0%      0.0%     
 flops    32 x     5 x    27           2802686400       0.0%    100.0%      0.0%     
 flops     3 x    30 x    30           2848910400       0.0%    100.0%      0.0%     
 flops    32 x    27 x    30           4273274880       0.0%    100.0%      0.0%     
 flops    27 x    32 x    30           4273274880       0.0%    100.0%      0.0%     
 flops    30 x     5 x    32           5319552000       0.0%    100.0%      0.0%     
 flops     5 x    30 x    32           5326694400       0.0%    100.0%      0.0%     
 flops    32 x    30 x     5           5639961600       0.0%    100.0%      0.0%     
 flops    32 x     5 x    30           5640499200       0.0%    100.0%      0.0%     
 flops    32 x    30 x     3           5644661760       0.0%    100.0%      0.0%     
 flops     3 x    30 x    32           5780977920       0.0%    100.0%      0.0%     
 flops     3 x    32 x   230           5816401920       0.0%    100.0%      0.0%     
 flops    32 x     3 x   230           5816401920       0.0%    100.0%      0.0%     
 flops    27 x    30 x    27           6996912840       0.0%    100.0%      0.0%     
 flops    27 x    27 x   230           7211151360       0.0%    100.0%      0.0%     
 flops    32 x     5 x    32          11777198080       0.0%    100.0%      0.0%     
 flops    30 x    30 x    27          13318149600       0.0%    100.0%      0.0%     
 flops    27 x    30 x    30          14651539200       0.0%    100.0%      0.0%     
 flops    32 x    32 x    30          17726177280       0.0%    100.0%      0.0%     
 flops     3 x     6 x     3          23952672648       0.0%    100.0%      0.0%     
 flops     3 x     3 x     6          24015936240       0.0%    100.0%      0.0%     
 flops     3 x     6 x     6          27445829184       0.0%    100.0%      0.0%     
 flops    27 x    30 x    32          29464508160       0.0%    100.0%      0.0%     
 flops    32 x    30 x    27          29591412480       0.0%    100.0%      0.0%     
 flops    32 x    27 x   230          29912924160       0.0%    100.0%      0.0%     
 flops    27 x    32 x   230          29912924160       0.0%    100.0%      0.0%     
 flops     6 x     6 x     3          49530982896       0.0%    100.0%      0.0%     
 flops    30 x    30 x    32          55930291200       0.0%    100.0%      0.0%     
 flops    32 x    30 x    30          60776755200       0.0%    100.0%      0.0%     
 flops     3 x     6 x    27         102187080252       0.0%    100.0%      0.0%     
 flops     3 x    27 x     6         102450616668       0.0%    100.0%      0.0%     
 flops     3 x    13 x     6         104073313968       0.0%    100.0%      0.0%     
 flops     3 x    13 x     3         110092634028       0.0%    100.0%      0.0%     
 flops     3 x     3 x    13         110391747336       0.0%    100.0%      0.0%     
 flops    27 x     6 x     6         117083228112       0.0%    100.0%      0.0%     
 flops    27 x     6 x     3         123189544980       0.0%    100.0%      0.0%     
 flops    27 x     3 x     6         123509043324       0.0%    100.0%      0.0%     
 flops    32 x    30 x    32         124073226240       0.0%    100.0%      0.0%     
 flops    32 x    32 x   230         124083240960       0.0%    100.0%      0.0%     
 flops     3 x     6 x    13         126156945096       0.0%    100.0%      0.0%     
 flops     6 x     6 x    27         194005115280       0.0%    100.0%      0.0%     
 flops     6 x    13 x     3         202314504600       0.0%    100.0%      0.0%     
 flops    13 x     6 x     3         224334408636       0.0%    100.0%      0.0%     
 flops    27 x    13 x     6         443973786984       0.0%    100.0%      0.0%     
 flops     3 x    13 x    13         478380002100       0.0%    100.0%      0.0%     
 flops     3 x    13 x    27         499479474546       0.0%    100.0%      0.0%     
 flops     3 x    27 x    13         500816409678       0.0%    100.0%      0.0%     
 flops    32 x     6 x     3         511015792896       0.0%    100.0%      0.0%     
 flops    32 x     3 x     6         512369306496       0.0%    100.0%      0.0%     
 flops    27 x     6 x    27         525549746880       0.0%    100.0%      0.0%     
 flops    27 x    27 x     6         526883178276       0.0%    100.0%      0.0%     
 flops    27 x    13 x     3         566213648598       0.0%    100.0%      0.0%     
 flops    27 x     3 x    13         567716753448       0.0%    100.0%      0.0%     
 flops    27 x     6 x    13         572334571224       0.0%    100.0%      0.0%     
 flops     3 x     6 x    32         601126750080       0.0%    100.0%      0.0%     
 flops     3 x    32 x     6         602679844224       0.0%    100.0%      0.0%     
 flops    32 x     6 x     6         688753193472       0.0%    100.0%      0.0%     
 flops     6 x    13 x    27         817591265244       0.0%    100.0%      0.0%     
 flops    13 x    13 x     3         926004917760       0.0%    100.0%      0.0%     
 flops    13 x     6 x    27         945607798512       0.0%    100.0%      0.0%     
 flops     6 x     6 x    32        1321334021376       0.0%    100.0%      0.0%     
 flops    27 x    13 x    13        2170266580872       0.0%    100.0%      0.0%     
 flops    32 x     6 x    27        2180082553344       0.0%    100.0%      0.0%     
 flops    32 x    27 x     6        2185724082816       0.0%    100.0%      0.0%     
 flops    32 x    13 x     3        2348774128896       0.0%    100.0%      0.0%     
 flops    32 x     3 x    13        2355134393664       0.0%    100.0%      0.0%     
 flops     3 x    13 x    32        2464097940096       0.0%    100.0%      0.0%     
 flops     3 x    32 x    13        2470665290496       0.0%    100.0%      0.0%     
 flops    27 x    13 x    27        2568852015210       0.0%    100.0%      0.0%     
 flops    27 x    27 x    13        2575575529722       0.0%    100.0%      0.0%     
 flops    32 x    13 x     6        2611711604736       0.0%    100.0%      0.0%     
 flops    32 x     6 x    13        2823463368960       0.0%    100.0%      0.0%     
 flops    27 x     6 x    32        3091602328704       0.0%    100.0%      0.0%     
 flops    27 x    32 x     6        3099454191360       0.0%    100.0%      0.0%     
 flops    13 x    13 x    27        3994597931688       0.0%    100.0%      0.0%     
 flops     6 x    13 x    32        5168668542336       0.0%    100.0%      0.0%     
 flops    13 x     6 x    32        5379787979904       0.0%    100.0%      0.0%     
 flops    32 x    13 x    27       10656121477248       0.0%    100.0%      0.0%     
 flops    32 x    27 x    13       10684517927616       0.0%    100.0%      0.0%     
 flops    32 x    13 x    13       10706393230208       0.0%    100.0%      0.0%     
 flops    27 x    13 x    32       12672864434880       0.0%    100.0%      0.0%     
 flops    27 x    32 x    13       12705916032576       0.0%    100.0%      0.0%     
 flops    32 x     6 x    32       12824578387968       0.0%    100.0%      0.0%     
 flops    32 x    32 x     6       12857822674944       0.0%    100.0%      0.0%     
 flops    13 x    13 x    32       21159445174400       0.0%    100.0%      0.0%     
 flops    32 x    13 x    32       52569446066176       0.0%    100.0%      0.0%     
 flops    32 x    32 x    13       52708816050176       0.0%    100.0%      0.0%     
 flops inhomo. stacks                           0       0.0%      0.0%      0.0%
 flops total                       271.048366E+12       0.0%    100.0%      0.0%
 flops max/rank                     35.773237E+12       0.0%    100.0%      0.0%
 matmuls inhomo. stacks                         0       0.0%      0.0%      0.0%
 matmuls total                        29874978818       0.0%    100.0%      0.0%
 number of processed stacks             549280115       0.0%    100.0%      0.0%
 average stack size                                     0.0      54.4       0.0
 marketing flops                   292.657562E+12
 -------------------------------------------------------------------------------
 # multiplications                         114772
 max memory usage/rank              23.828746E+09
 # max total images/rank                        2
 # max 3D layers                                1
 # MPI messages exchanged                 4590880
 MPI messages size (bytes):
  total size                         5.931902E+12
  min size                           0.000000E+00
  max size                           5.984240E+06
  average size                       1.292106E+06
 MPI breakdown and total messages size (bytes):
             size <=      128                1890                        0
       128 < size <=     8192                  15                    74864
      8192 < size <=    32768                  55                  1322320
     32768 < size <=   131072              367422              38868196832
    131072 < size <=  4194304             3671142            2959518190864
   4194304 < size <= 16777216              550356            2931643659768
  16777216 < size                               0                        0
 -------------------------------------------------------------------------------

 *** WARNING in dbcsr_mm.F:301 :: Using a non-square number of MPI ranks ***
 *** might lead to poor performance. Used ranks: 8 Suggested: 9 16       ***

 -------------------------------------------------------------------------------
 -                                                                             -
 -                      DBCSR MESSAGE PASSING PERFORMANCE                      -
 -                                                                             -
 -------------------------------------------------------------------------------
 ROUTINE             CALLS      AVE VOLUME [Bytes]
 MP_Bcast              142                     12.
 MP_Allreduce       459470                     45.
 MP_Alltoall        940561                  86305.
 MP_ISend          2159226                 376053.
 MP_IRecv          2158976                 381017.
 -------------------------------------------------------------------------------

 -------------------------------------------------------------------------------
 -                                                                             -
 -                                GRID STATISTICS                              -
 -                                                                             -
 -------------------------------------------------------------------------------
 LP    KERNEL             BACKEND                              COUNT     PERCENT
 4     collocate ortho    CPU                                   4194      21.76%
 4     integrate ortho    CPU                                   4194      21.76%
 3     collocate ortho    CPU                                   3960      20.54%
 3     integrate ortho    CPU                                   3960      20.54%
 2     collocate ortho    CPU                                   1419       7.36%
 2     integrate ortho    CPU                                   1419       7.36%
 0     collocate general  CPU                                     88       0.46%
 0     integrate general  CPU                                     44       0.23%
 -------------------------------------------------------------------------------

 -------------------------------------------------------------------------------
 -                                                                             -
 -                          OFFLOAD MEMPOOL STATISTICS                         -
 -                                                                             -
 -------------------------------------------------------------------------------
 Memory consumption                Number of allocations  Used [MiB]  Size [MiB]
 Host                                                  6          67    21325476
 -------------------------------------------------------------------------------

 MEMORY| Estimated peak process memory [MiB]                                2355

 -------------------------------------------------------------------------------
 ----                             MULTIGRID INFO                            ----
 -------------------------------------------------------------------------------
 count for grid        1:          42014          cutoff [a.u.]          300.00
 count for grid        2:          36181          cutoff [a.u.]          100.00
 count for grid        3:          38578          cutoff [a.u.]           33.33
 count for grid        4:          21368          cutoff [a.u.]           11.11
 total gridlevel count  :         138141

 -------------------------------------------------------------------------------
 -                                                                             -
 -                         MESSAGE PASSING PERFORMANCE                         -
 -                                                                             -
 -------------------------------------------------------------------------------

 ROUTINE             CALLS      AVE VOLUME [Bytes]
 MP_Group               25
 MP_Bcast              372                 152177.
 MP_Allreduce       115602                  10322.
 MP_Sync                11
 MP_Alltoall            64               55283105.
 MP_SendRecv            63                1334400.
 MP_ISendRecv           63                1334400.
 MP_Wait               182
 MP_comm_split          12
 MP_ISend              100                3528539.
 MP_IRecv              100                3528539.
 -------------------------------------------------------------------------------


 -------------------------------------------------------------------------------
 -                                                                             -
 -                           R E F E R E N C E S                               -
 -                                                                             -
 -------------------------------------------------------------------------------
 
 CP2K version 2026.2 (Development Version), the CP2K developers group (2026).
 CP2K is freely available from https://www.cp2k.org/ .
 
 M. Iannuzzi, J. Wilhelm, F. Stein, A. Bussy, H. Elgabarty, D. Golze, A. Hehn, 
 M. Graml, S. Marek, B. Sertcan Gökmen, C. Schran, H. Forbert, R. Z. 
 Khaliullin, A. Kozhevnikov, M. Taillefumier, R. Meli, V. V. Rybkin, M. Brehm, 
 R. Schade, O. Schütt, J. V. Pototschnig, H. Mirhosseini, A. Knüpfer, D. Marx, 
 M. Krack, J. Hutter, T. D. Kühne.
 J. Phys. Chem. B 130, 1237-1310 (2026).
 The CP2K Program Package Made Simple.
 https://doi.org/10.1021/acs.jpcb.5c05851

 M. Graml, K. Zollner, D. Hernangómez-Pérez, P. E. Faria Junior, J. Wilhelm.
 J. Chem. Theory Comput. 20, 2202-2208 (2024).
 Low-scaling GW algorithm applied to twisted transition-metal dichalcogenide 
 heterobilayers.
 https://doi.org/10.1021/acs.jctc.3c01230

 T. D. Kühne, M. Iannuzzi, M. Del Ben, V. V. Rybkin, P. Seewald, F. Stein, T. 
 Laino, R. Z. Khaliullin, O. Schütt, F. Schiffmann, D. Golze, J. Wilhelm, S. 
 Chulkov, M. H. Bani-Hashemian, V. Weber, U. Borstnik, M. Taillefumier, A. S. 
 Jakobovits, A. Lazzaro, H. Pabst, T. Müller, R. Schade, M. Guidon, S. 
 Andermatt, N. Holmberg, G. K. Schenter, A. Hehn, A. Bussy, F. Belleflamme, G. 
 Tabacchi, A. Glöß, M. Lass, I. Bethune, C. J. Mundy, C. Plessl, M. Watkins, 
 J. VandeVondele, M. Krack, J. Hutter.
 J. Chem. Phys. 152, 194103 (2020).
 CP2K: An electronic structure and molecular dynamics software package - 
 Quickstep: Efficient and accurate electronic structure calculations.
 https://doi.org/10.1063/5.0007045

 O. Schuett, P. Messmer, J. Hutter, J. VandeVondele.
 Electronic Structure Calculations on Graphics Processing Units, 173-190 (2016).
 GPU-Accelerated Sparse Matrix-Matrix Multiplication for Linear Scaling Density 
 Functional Theory.
 https://doi.org/10.1002/9781118670712.ch8

 A. Heinecke, G. Henry, M. Hutchinson, H. Pabst.
 Proceedings of Intl. Supercomputing Conference, 981-991 (2016).
 LIBXSMM: Accelerating Small Matrix Multiplications by Runtime Code Generation.
 https://doi.org/10.1109/SC.2016.83

 U. Borstnik, J. VandeVondele, V. Weber, J. Hutter.
 Parallel Comput. 40, 47-58 (2014).
 Sparse matrix multiplication: The distributed block-compressed sparse row 
 library.
 https://doi.org/10.1016/j.parco.2014.03.012

 A. Marek, V. Blum, R. Johanni, V. Havu, B. Lang, T. Auckenthaler, A. Heinecke, 
 H. Bungartz, H. Lederer.
 J. Phys. Condens. Matter 26, 213201 (2014).
 The ELPA library: scalable parallel eigenvalue solutions for electronic 
 structure theory and computational science.
 https://doi.org/10.1088/0953-8984/26/21/213201

 J. VandeVondele, J. Hutter.
 J. Chem. Phys. 127, 114105 (2007).
 Gaussian basis sets for accurate calculations on molecular systems in gas and 
 condensed phases.
 https://doi.org/10.1063/1.2770708

 J. VandeVondele, M. Krack, F. Mohamed, M. Parrinello, T. Chassaing, J. Hutter.
 Comput. Phys. Commun. 167, 103-128 (2005).
 QUICKSTEP: Fast and accurate density functional calculations using a mixed 
 Gaussian and plane waves approach.
 https://doi.org/10.1016/j.cpc.2004.12.014

 M. Krack.
 Theor. Chem. Acc. 114, 145-152 (2005).
 Pseudopotentials for H to Kr optimized for gradient-corrected 
 exchange-correlation functionals.
 https://doi.org/10.1007/s00214-005-0655-y

 M. Frigo, S. G. Johnson.
 Proc. IEEE 93, 216-231 (2005).
 The design and implementation of FFTW3.
 https://doi.org/10.1109/JPROC.2004.840301

 C. Hartwigsen, S. Goedecker, J. Hutter.
 Phys. Rev. B 58, 3641-3662 (1998).
 Relativistic separable dual-space Gaussian pseudopotentials from H to Rn.
 https://doi.org/10.1103/PhysRevB.58.3641

 G. Lippert, J. Hutter, M. Parrinello.
 Mol. Phys. 92, 477-487 (1997).
 A hybrid Gaussian and plane wave density functional scheme.
 https://doi.org/10.1080/002689797170220

 S. Goedecker, M. Teter, J. Hutter.
 Phys. Rev. B 54, 1703-1710 (1996).
 Separable dual-space Gaussian pseudopotentials.
 https://doi.org/10.1103/PhysRevB.54.1703

 J. P. Perdew, K. Burke, M. Ernzerhof.
 Phys. Rev. Lett. 77, 3865-3868 (1996).
 Generalized gradient approximation made simple.
 https://doi.org/10.1103/PhysRevLett.77.3865

 P. E. Blöchl.
 J. Chem. Phys. 103, 7422-7428 (1995).
 Electrostatic decoupling of periodic images of plane‐wave‐expanded 
 densities and derived atomic point charges.
 https://doi.org/10.1063/1.470314

 R. H. Byrd, P. H. Lu, J. Nocedal, C. Y. Zhu.
 SIAM J. Sci. Comput. 16, 1190-1208 (1995).
 A Limited Memory Algorithm for Bound Constrained Optimization.
 https://doi.org/10.1137/0916069

 C. G. Broyden.
 Math. Comput. 19, 577-593 (1965).
 A class of methods for solving nonlinear simultaneous equations.
 https://doi.org/10.1090/S0025-5718-1965-0198670-6


 -------------------------------------------------------------------------------
 -                                                                             -
 -                                T I M I N G                                  -
 -                                                                             -
 -------------------------------------------------------------------------------
 SUBROUTINE                       CALLS  ASD         SELF TIME        TOTAL TIME
                                MAXIMUM       AVERAGE  MAXIMUM  AVERAGE  MAXIMUM
 CP2K                                 1  1.0    0.007    0.021 1035.162 1035.163
 run_propagation_linearized_bse       1  2.0    0.862    5.858 1034.389 1034.566
 solve_rk4_timestep                2857  3.0    0.081    0.100  714.957  715.731
 build_shared_sex_and_hartree     11428  4.0    0.087    0.106  632.802  633.725
 compute_sigma_ri_rs_complex      11428  5.0    0.111    0.138  497.888  498.548
 compute_sigma_ri_rs              22856  6.0    0.447    0.522  496.269  496.554
 dbcsr_multiply_generic          114772  7.8    2.818    2.954  480.280  484.188
 dbcsr_contract_ABA               45713  7.0    0.203    0.242  412.723  415.386
 multiply_cannon                 114772  8.8    5.928    6.574  304.102  315.579
 qs_energies                          1  3.0    0.000    0.000  306.534  306.534
 qs_energies_properties               1  4.0    0.000    0.000  304.400  304.400
 post_scf_bandstructure               1  5.0    0.000    0.000  304.400  304.400
 gw                                   1  6.0    0.000    0.000  304.278  304.293
 gw_calc_non_periodic_ri_rs           1  7.0    0.000    0.000  303.386  303.468
 ri_rs_grid_assembler                 1  8.0    0.001    0.001  298.010  298.078
 optimize_ri_rs_grid                  1  9.0    6.012    7.992  297.986  298.044
 evaluate_rirs_grid_cluster        1206 10.0  197.985  288.542  197.985  288.542
 multiply_cannon_loop            114772  9.8    3.803    3.894  262.027  267.814
 mp_sum_d                         23525  4.0   93.571  212.353   93.571  212.353
 multiply_cannon_multrec         459088 10.8  188.584  194.773  189.669  195.437
 make_m2s                        229544  8.8    1.291    1.321  127.119  130.788
 make_images                     229544  9.8   24.442   28.166  123.468  127.085
 parallel_gemm_fm_cosma          183302  6.0  109.319  112.078  109.319  112.078
 compute_hartree_ri_rs_from_dia   11428  5.0    0.121    0.126  104.836  105.996
 hartree_potential_from_diag_ri   22856  6.0   11.544   12.987  103.893  104.800
 mp_waitall_1                   4590990 12.1   87.841  104.324   87.841  104.324
 update_effective_ham_MO          11428  4.0    0.204    0.240   82.019   82.715
 make_images_data                229544 10.8    1.600    1.678   70.579   74.476
 hybrid_alltoall_any             275370 11.3   13.873   31.045   65.222   68.964
 transform_mo_to_ao_contravaria   22857  5.0    0.129    0.149   56.087   57.596
 transform_ao_to_mo_covariant_c   22856  5.0    0.138    0.169   53.945   55.057
 copy_dbcsr_to_fm                 45822  7.0    0.471    0.582   44.721   49.839
 dbcsr_complete_redistribute      68841  8.0   16.109   17.994   45.400   47.009
 multiply_cannon_metrocomm3      459088 10.8    0.660    0.671   34.718   39.290
 calculate_norms                 917656 10.8   30.988   35.699   30.988   35.699
 buffer_matrices_ensure_size     229544  9.8   21.483   26.968   21.483   26.968
 hadamard_product_inplace         22856  7.0   22.983   25.275   23.019   25.311
 dbcsr_finalize                  230735  8.9    1.079    1.116   20.320   21.232
 mp_sum_l                        344491  8.8   15.268   20.577   15.268   20.577
 copy_fm_to_dbcsr                 23019  7.0    0.086    0.093   16.791   18.562
 mp_sum_dv                        91698  7.0   12.197   18.291   12.197   18.291
 dbcsr_merge_all                 184718  9.9    6.026    6.695   15.615   16.597
 dbcsr_desymmetrize_deep          45826  8.0    3.404    5.004   10.402   15.537
 mp_allgather_i34                114772  9.8    6.619   14.294    6.619   14.294
 dbcsr_special_finalize          344316 10.8    0.907    0.942   12.286   13.051
 make_images_sizes               229544 10.8    0.166    0.191    8.392   12.376
 mp_alltoall_i22                 114667  9.0    8.847   12.277    8.847   12.277
 mp_alltoall_i44                 229544 11.8    8.226   12.220    8.226   12.220
 mp_alltoall_d11v                344007  9.4    9.132   10.538    9.132   10.538
 dbcsr_add_wm_from_matrix         23022  9.0    6.511    7.355    8.257    9.797
 dbcsr_merge_single_wm           229544 11.8    3.309    4.358    9.014    9.684
 dbcsr_sort_data                 321430 12.2    7.456    8.670    7.456    8.670
 print_ft                             1  3.0    0.008    0.061    8.386    8.564
 greenx_refine_ft                     3  4.0    8.377    8.563    8.377    8.563
 make_images_pack                229544 10.8    3.139    6.294    4.527    7.684
 dbcsr_set                        91894  8.5    0.076    0.085    6.260    6.988
 dbcsr_zero                       91894  9.5    6.184    6.916    6.184    6.916
 dbcsr_copy                      275433  8.5    4.271    5.661    5.033    6.424
 mp_cart_create                   45853  9.0    3.896    5.075    3.896    5.075
 dbcsr_create_new               1354626  9.8    3.293    3.338    4.368    4.430
 dbcsr_sort_indices              619880 12.0    4.176    4.393    4.176    4.393
 dbcsr_iterator_start           1102532  9.9    3.364    3.416    3.868    4.034
 setup_rec_index_2d              229544  9.8    3.897    4.027    3.897    4.027
 tree_to_linear_d                 68868 11.0    3.357    3.994    3.357    3.994
 dbcsr_data_copy_aa2              92078 11.0    2.008    3.736    2.008    3.736
 dbcsr_work_destroy_all          574860 11.1    2.367    2.406    3.544    3.617
 dbcsr_scale_anytype              46737  8.6    1.965    2.147    3.236    3.469
 copy_dbcsr_to_fm_bc              45822  8.0    2.330    2.783    2.675    3.119
 dbcsr_work_create               574860 10.1    1.971    2.040    3.034    3.101
 dbcsr_data_new                 6307076 10.3    3.027    3.098    3.027    3.098
 dbcsr_data_release             ******* 10.7    2.893    2.970    2.893    2.970
 dbcsr_fill_wm_from_matrix        23022 10.0    1.164    2.612    1.365    2.807
 dbcsr_new_transposed             68815  8.7    0.420    0.455    2.493    2.613
 quick_finalize                  160598 11.3    0.543    0.585    2.341    2.494
 dbcsr_make_untransposed_blocks  137785  8.8    1.102    1.122    2.433    2.462
 copy_fm_to_dbcsr_bc              23019  8.0    0.626    0.706    1.507    2.460
 dbcsr_iterator_stop            1102532  9.9    1.960    2.000    2.216    2.280
 dbcsr_make_index_list           344316  9.8    2.192    2.279    2.192    2.279
 mp_cart_sub                      91658  9.0    2.180    2.268    2.180    2.268
 compute_Sigma_c_and_QP_energie       1  8.0    0.000    0.000    2.085    2.100
 dbcsr_destroy                  1308757  8.9    1.260    1.271    2.041    2.067
 cp_cfm_to_fm                     80001  5.6    1.632    2.043    1.632    2.043
 cp_cfm_transpose                 22856  5.0    1.511    2.038    1.511    2.038
 cp_fm_to_cfm                     91429  6.0    1.568    1.965    1.568    1.965
 compute_Sigma_c                      1  9.0    0.001    0.001    1.904    1.904
 mp_alltoall_i11v                252349  9.0    1.497    1.795    1.497    1.795
 multiply_cannon_multrec_finali  114772 11.8    0.100    0.124    1.085    1.730
 dbcsr_mm_multrec_init           114772  9.8    0.123    0.128    1.636    1.721
 contract_grid_panels_sigma_c        30 10.0    0.001    0.002    1.686    1.687
 dbcsr_mm_multrec_finalize       114772 12.8    0.534    0.584    0.985    1.605
 dbcsr_mm_csr_init               114772 10.8    0.911    0.953    1.513    1.594
 setup_buffer_matrices           229544  9.8    0.561    0.581    1.439    1.508
 scf_env_do_scf                       1  4.0    0.000    0.002    1.478    1.484
 scf_env_do_scf_inner_loop            2  5.0    0.000    0.000    1.477    1.482
 multiply_cannon_metrocomm4      344316 10.8    0.606    0.618    1.376    1.446
 transpose_index_local            68815  9.7    0.158    0.174    1.347    1.441
 dbcsr_reserve_all_blocks         23022  9.0    0.042    0.050    0.523    1.411
 dbcsr_get_diag                   22856  7.0    1.311    1.350    1.345    1.383
 dbcsr_reserve_blocks             23036 10.0    0.460    1.342    0.481    1.362
 mp_isend_iv                    1309076 11.8    1.251    1.327    1.251    1.327
 compute_W                            1  8.0    0.000    0.000    1.273    1.274
 abc_contract_xsmm                81750 10.0    0.821    1.254    0.821    1.254
 cp_fm_write_unformatted           5717  3.0    1.140    1.169    1.179    1.211
 get_mat_chi_Gamma_tau                1  8.0    0.000    0.001    1.152    1.152
 dbcsr_mm_sched_finalize         114772 13.8    0.395    1.066    0.395    1.066
 contract_grid_panels                31  9.0    0.001    0.001    1.053    1.059
 cp_fm_write_formatted             5714  3.0    0.982    1.007    1.020    1.051
 cp_fm_trace_a0b0t0               17148  3.0    0.185    0.252    0.658    1.035
 qs_ks_build_kohn_sham_matrix         3  8.3    0.000    0.000    1.031    1.032
 mp_isend_dv                    1033292 12.2    0.919    1.024    0.919    1.024
 multiply_cannon_metrocomm2      229544 10.8    0.406    0.423    0.994    1.022
 cp_fm_transpose                  17149  3.0    0.560    0.951    0.560    0.951
 create_and_init_bs_env_for_gw        1  7.0    0.000    0.000    0.892    0.944
 compute_fm_W_freq                   30  9.0    0.001    0.001    0.888    0.896
 dbcsr_scale_d                    22887  7.0    0.032    0.040    0.870    0.882
 qs_ks_update_qs_env                  2  6.0    0.000    0.000    0.872    0.873
 rebuild_ks_matrix                    2  7.0    0.000    0.000    0.870    0.870
 cp_cfm_scale_and_add             88578  5.0    0.670    0.857    0.670    0.857
 fft_wrap_pw1pw2                     46 11.0    0.001    0.001    0.798    0.804
 compute_Z_lP                         1  8.0    0.000    0.000    0.787    0.787
 compute_Z_lP_standard                1  9.0    0.001    0.001    0.787    0.787
 fft_wrap_pw1pw2_300                 28 12.3    0.052    0.053    0.754    0.760
 qs_rho_update_rho_low                3  6.0    0.000    0.000    0.757    0.758
 calculate_rho_elec                   3  7.0    0.021    0.021    0.757    0.758
 dbcsr_iterator_seek            1102532 10.9    0.504    0.631    0.504    0.631
 dbcsr_make_index_exist         1354626 10.8    0.578    0.611    0.578    0.611
 fft3d_ps                            46 13.0    0.304    0.306    0.589    0.595
 qs_vxc_create                        3  9.3    0.000    0.000    0.543    0.544
 xc_vxc_pw_create                     2 10.0    0.018    0.018    0.543    0.544
 fill_hash_tables                114772 11.8    0.502    0.539    0.502    0.539
 mp_irecv_iv                    1309187 11.8    0.496    0.533    0.496    0.533
 multiply_cannon_metrocomm1      459088 10.8    0.298    0.306    0.480    0.531
 init_scf_run                         1  4.0    0.000    0.000    0.479    0.479
 mp_sum_iv                       114833  9.8    0.448    0.471    0.448    0.471
 dbcsr_make_dbcsr_index          666717 11.9    0.426    0.456    0.426    0.456
 grid_collocate_task_list             3  8.0    0.452    0.455    0.452    0.455
 mp_bcast_dm                          2 11.5    0.385    0.454    0.385    0.454
 merge_index                     184718 10.9    0.413    0.453    0.413    0.453
 scf_env_initial_rho_setup            1  5.0    0.000    0.000    0.449    0.449
 mp_comm_free                    137570  9.0    0.431    0.448    0.431    0.448
 compute_d_lp                         6 10.0    0.203    0.236    0.377    0.436
 mp_irecv_dv                    1033541 12.2    0.368    0.418    0.368    0.418
 xc_pw_derive                        12 12.0    0.000    0.000    0.368    0.375
 mp_max_l                            22  1.8    0.177    0.357    0.177    0.357
 qs_init_subsys                       1  2.0    0.001    0.001    0.345    0.349
 qs_env_setup                         1  3.0    0.000    0.000    0.344    0.348
 qs_env_rebuild_pw_env                2  4.0    0.000    0.000    0.344    0.347
 pw_env_rebuild                       1  5.0    0.000    0.000    0.344    0.347
 pw_grid_setup                        5  5.2    0.000    0.000    0.341    0.343
 pw_grid_setup_internal               5  6.2    0.007    0.016    0.341    0.343
 dbcsr_switch_data_area          459040 10.7    0.229    0.240    0.332    0.343
 release_dbcsr_topology_and_mat   68571  7.0    0.076    0.080    0.331    0.340
 dbcsr_distribution_new          413800  8.8    0.321    0.333    0.321    0.333
 setup_time_and_frequency_minim       1  8.0    0.000    0.000    0.311    0.316
 build_minimax_time_frequency_g       1  9.0    0.000    0.000    0.311    0.316
 fit_l_sq_weights                     3 10.0    0.311    0.316    0.311    0.316
 RI_2c_integral_mat                   4  7.2    0.000    0.000    0.312    0.314
 build_2c_integrals                   4  8.2    0.052    0.277    0.290    0.294
 get_RI_basis                         1  8.0    0.000    0.000    0.285    0.286
 compute_Minv_Gamma                   1  9.0    0.000    0.000    0.285    0.285
 build_G_ao                         121  9.5    0.001    0.001    0.278    0.284
 density_rs2pw                        3  8.0    0.000    0.000    0.277    0.283
 pw_grid_sort                         5  7.2    0.181    0.182    0.267    0.281
 xc_rho_set_and_dset_create           2 11.0    0.011    0.012    0.278    0.281
 cp_fm_cholesky_invert               31 10.0    0.270    0.274    0.270    0.274
 sum_up_and_integrate                 3  9.3    0.000    0.000    0.257    0.257
 mp_recv_dv                       45733  4.0    0.032    0.256    0.032    0.256
 integrate_v_rspace                   3 10.3    0.000    0.000    0.255    0.256
 gw_3c_ctx_create                     2 10.0    0.031    0.249    0.190    0.250
 xc_pw_divergence                     2 11.0    0.000    0.000    0.244    0.249
 get_electron_number_MO            2857  3.0    0.010    0.011    0.113    0.213
 G_occ_vir                          121 10.5    0.033    0.044    0.190    0.198
 mp_alltoall_z22v                    46 15.0    0.183    0.190    0.183    0.190
 compute_QP_energies                  1  9.0    0.000    0.000    0.180    0.186
 potential_pw2rs                      3 11.3    0.001    0.001    0.184    0.185
 create_qs_kind_set                   1  2.0    0.000    0.000    0.171    0.171
 read_qs_kind                         2  3.0    0.036    0.048    0.171    0.171
 compute_V_xc                         1  8.0    0.000    0.000    0.162    0.163
 dbcsr_make_index_local_row      344316  9.8    0.153    0.162    0.153    0.162
 setup_square_topology            45838  7.0    0.104    0.112    0.149    0.159
 mixing_init                          1  6.0    0.157    0.159    0.159    0.159
 compute_d_lp_dgemm                 699 11.0    0.138    0.158    0.138    0.158
 check_for_restart_files              1  8.0    0.103    0.156    0.103    0.156
 parser_read_line                 20832  4.0    0.003    0.004    0.150    0.154
 to_Gamma_and_mo_real                62 10.0    0.001    0.001    0.151    0.151
 parser_read_line_low                26  5.1    0.009    0.061    0.146    0.151
 x_to_yz                             24 14.6    0.045    0.046    0.148    0.150
 broadcast_input_information         26  6.1    0.006    0.017    0.138    0.150
 extract_grid_panel                 122 10.5    0.109    0.128    0.128    0.150
 mask_mo_block_cfm                34284  5.0    0.108    0.143    0.108    0.143
 yz_to_x                             22 13.5    0.054    0.055    0.134    0.139
 transfer_rs2pw                      14  8.8    0.000    0.000    0.116    0.133
 qs_ks_ddapc                          3  9.3    0.000    0.000    0.132    0.132
 mp_sync                             11  9.1    0.068    0.129    0.068    0.129
 cp_fm_cholesky_decompose            34 10.0    0.116    0.127    0.116    0.127
 cp_fm_create                     34692  6.0    0.121    0.127    0.121    0.127
 cp_fm_diag_elpa                      6  8.3    0.000    0.000    0.125    0.125
 cp_fm_diag_elpa_base                 6  9.3    0.121    0.122    0.124    0.124
 compute_fm_chi_Gamma_freq           30  9.0    0.001    0.001    0.119    0.124
 dbcsr_get_data_size_used        230544  9.9    0.105    0.111    0.105    0.111
 compute_Z_lP_standard_dpotrf         6 10.0    0.094    0.110    0.094    0.110
 dbcsr_mm_sched_init             114772 11.8    0.073    0.080    0.099    0.110
 hadamard_product                    91 10.7    0.078    0.085    0.100    0.107
 build_phi_on_sphere                  6 10.0    0.004    0.005    0.086    0.103
 extract_masked_blocks              244 10.6    0.073    0.079    0.093    0.102
 evaluate_ao_on_points              270 11.0    0.084    0.102    0.084    0.102
 mp_bcast_i_src                     109  7.1    0.083    0.099    0.083    0.099
 transfer_rs2pw_300                   5  9.4    0.032    0.032    0.082    0.099
 sort_shells                          5  8.2    0.086    0.099    0.086    0.099
 build_gram_jacobi_blas               6 10.0    0.046    0.049    0.086    0.093
 transfer_pw2rs                      13 12.0    0.000    0.000    0.092    0.092
 qs_energies_init_hamiltonians        1  4.0    0.000    0.000    0.092    0.092
 mp_send_dv                       11432  4.0    0.044    0.091    0.044    0.091
 cp_fm_uplo_to_full                  67 10.0    0.058    0.091    0.058    0.091
 multrec_filtering                91850 13.8    0.056    0.089    0.056    0.089
 pw_poisson_solve                     3  9.3    0.000    0.000    0.087    0.087
 scf_post_calculation_gpw             1  4.0    0.000    0.000    0.085    0.086
 write_available_results              1  5.0    0.000    0.000    0.085    0.086
 write_mo_free_results                1  6.0    0.009    0.009    0.084    0.085
 qs_env_update_s_mstruct              1  5.0    0.000    0.000    0.085    0.085
 mp_waitany                          72 11.7    0.067    0.084    0.067    0.084
 eval_bandstructure_properties        1  6.0    0.000    0.000    0.073    0.075
 compute_Sigma_x                      1  8.0    0.000    0.000    0.073    0.074
 dbcsr_add_d                        931 10.0    0.001    0.001    0.072    0.074
 xc_functional_eval                   2 12.0    0.000    0.000    0.070    0.073
 pbe_lda_eval                         2 13.0    0.070    0.073    0.070    0.073
 dbcsr_add_anytype                  931 11.0    0.023    0.027    0.071    0.073
 grid_integrate_task_list             3 11.3    0.065    0.070    0.065    0.070
 pw_copy                             44 11.5    0.064    0.067    0.064    0.067
 pw_scatter_p                        24 13.6    0.065    0.066    0.065    0.066
 cp_cfm_geeig                         1  7.0    0.000    0.000    0.063    0.066
 pw_integral_ab_c1d_c1d_gs            6 10.8    0.061    0.061    0.063    0.063
 dbcsr_get_local_rows            114772  8.8    0.057    0.061    0.057    0.061
 calculate_rho_core                   1  6.0    0.009    0.011    0.060    0.060
 compute_Z_lP_standard_dpotrs         6 10.0    0.052    0.060    0.052    0.060
 cp_cfm_zscale                    22856  5.0    0.047    0.058    0.047    0.058
 pw_derive                           21 12.3    0.056    0.056    0.056    0.056
 qs_scf_new_mos                       2  6.0    0.000    0.000    0.055    0.055
 mp_bcast_am_src                     26  7.1    0.048    0.054    0.048    0.054
 transfer_pw2rs_300                   4 12.2    0.024    0.024    0.053    0.054
 dbcsr_get_local_cols            114772  8.8    0.050    0.054    0.050    0.054
 build_grid_cache                     1  9.0    0.002    0.002    0.024    0.050
 eval_pw_TabLR                        1  2.0    0.024    0.029    0.040    0.050
 cp_ddapc_apply_CD                    3 10.3    0.000    0.000    0.048    0.049
 gspace_mixing                        1  6.0    0.007    0.007    0.049    0.049
 create_and_init_bs_env               1  6.0    0.000    0.000    0.048    0.048
 eigensolver_symm                     2  7.0    0.000    0.000    0.048    0.048
 read_rirs_grid_file                  2 10.0    0.022    0.048    0.022    0.048
 build_gram_jacobi_blas_dsyrk         6 11.0    0.040    0.047    0.040    0.047
 collect_used_col_blocks             92 10.7    0.002    0.002    0.029    0.046
 pw_gather_p                         22 12.5    0.044    0.045    0.044    0.045
 diagonalize_ks_matrix                1  7.0    0.000    0.000    0.043    0.043
 cp_fm_geeig_canon                    1  8.0    0.000    0.000    0.043    0.043
 initialize_sex_selfenergy            1  3.0    0.000    0.000    0.040    0.040
 rt_bse_ri_rs_ensure_W0_grid          1  4.0    0.000    0.000    0.040    0.040
 pw_poisson_set                       4  9.2    0.000    0.000    0.039    0.040
 dbcsr_get_global_col_map        114772  8.8    0.033    0.040    0.033    0.040
 cp_cfm_heevd                         1  8.0    0.000    0.000    0.039    0.039
 cp_cfm_heevd_base                    1  9.0    0.039    0.039    0.039    0.039
 hirshfeld_integration                1  7.0    0.014    0.023    0.035    0.036
 fill_fm_Sigma_c_Gamma_time           1 10.0    0.000    0.000    0.035    0.035
 dbcsr_get_global_row_map        114772  8.8    0.032    0.035    0.032    0.035
 fft_wrap_pw1pw2_100                  6 11.7    0.002    0.003    0.033    0.034
 calculate_hirshfeld_normalizat       1  7.0    0.013    0.022    0.033    0.033
 transfer_pw2rs_100                   3 13.3    0.012    0.012    0.030    0.032
 dbcsr_mm_hostdrv_init           114772 12.8    0.026    0.030    0.026    0.030
 transfer_rs2pw_100                   3 10.0    0.012    0.012    0.026    0.027
 read_gw_input_parameters             1  8.0    0.000    0.000    0.027    0.027
 read_rirs_grid_opt                   1  9.0    0.027    0.027    0.027    0.027
 pw_grid_assign                       5  7.2    0.025    0.026    0.025    0.026
 cp_fm_geeig                          1 10.0    0.000    0.000    0.026    0.026
 pw_grid_remap                        4  8.0    0.004    0.004    0.019    0.025
 calculate_first_density_matrix       1  6.0    0.000    0.001    0.023    0.024
 initialize_moments                   1  3.0    0.000    0.000    0.023    0.023
 pw_copy_to_array                    22 12.5    0.023    0.023    0.023    0.023
 topology_control                     1  2.0    0.000    0.000    0.021    0.023
 cp_cfm_cholesky_decompose            2  8.0    0.020    0.023    0.020    0.023
 pw_axpy                             39  7.5    0.022    0.023    0.022    0.023
 initialize_hartree_potential         1  3.0    0.000    0.000    0.022    0.022
 rt_bse_ri_rs_ensure_V_grid           1  4.0    0.000    0.000    0.022    0.022
 coordinate_control                   1  3.0    0.004    0.005    0.020    0.022
 pw_copy_from_array                  24 13.6    0.021    0.021    0.021    0.021
 mp_sum_im3                           5  9.2    0.015    0.021    0.015    0.021
 dbcsr_binary_write                   1 10.0    0.020    0.021    0.020    0.021
 mp_sendrecv_dv                      63 11.0    0.019    0.021    0.019    0.021
 compute_V_MinvVsqrt                  1  9.0    0.000    0.000    0.019    0.019
 cp_fm_scale_and_add                935  9.9    0.015    0.019    0.015    0.019
 cp_ddapc_init                        1  6.0    0.000    0.000    0.019    0.019
 cp_ddapc_create                      1  7.0    0.000    0.000    0.019    0.019
 Fourier_transform_w_to_t            30  9.0    0.001    0.001    0.015    0.019
 coordinate_control_READ_COORDI       1  4.0    0.000    0.000    0.016    0.018
 read_coordinate_xyz                  1  5.0    0.001    0.006    0.016    0.018
 mp_bcast_b_src                      11  9.0    0.014    0.017    0.014    0.017
 dbcsr_make_images_dense             48 12.7    0.000    0.000    0.014    0.015
 dbcsr_make_dense_low                72 13.7    0.000    0.000    0.013    0.015
 make_dense_data                     72 14.7    0.010    0.012    0.012    0.014
 broyden_mixing                       1  7.0    0.014    0.014    0.014    0.014
 ab_contract                      29372  9.2    0.013    0.014    0.013    0.014
 read_mo_set_from_restart             1  7.0    0.002    0.012    0.013    0.013
 pw_integral_ab_r3d_r3d_rs           28  3.0    0.013    0.013    0.013    0.013
 parallel_gemm_cfm                   14  6.6    0.000    0.000    0.013    0.013
 parallel_gemm_cfm_cosma             14  7.6    0.013    0.013    0.013    0.013
 ddapc_eval_AmI                       1  8.0    0.002    0.002    0.012    0.013
 fm_write                             1  9.0    0.001    0.007    0.011    0.012
 rs_gather_matrices                   3 11.3    0.000    0.000    0.006    0.012
 build_local_moment_matrix            2  4.0    0.011    0.012    0.011    0.012
 pw_zero                             36  5.5    0.011    0.011    0.011    0.011
 get_ddapc                            3 11.3    0.000    0.000    0.010    0.010
 rs_scatter_matrices                  3  8.0    0.000    0.000    0.005    0.010
 delete_unnecessary_files             1  9.0    0.000    0.000    0.001    0.010
 build_A_matrix                       1  9.0    0.009    0.010    0.009    0.010
 safe_delete                         60 10.0    0.001    0.010    0.001    0.010
 cp_fm_copy_general                   4  8.2    0.000    0.000    0.009    0.010
 write_mo_set_to_restart              2  6.0    0.000    0.002    0.003    0.010
 rs_grid_zero                         6 11.3    0.009    0.009    0.009    0.009
 qs_scf_print_scf_summary             1  6.0    0.001    0.009    0.001    0.009
 build_2c_coulomb_matrix_kp           1 10.0    0.000    0.000    0.009    0.009
 compute_proj_mo_on_kind              1  7.0    0.000    0.000    0.009    0.009
 mp_sum_dm                            3  7.0    0.007    0.009    0.007    0.009
 lattice_sum                          1 11.0    0.000    0.000    0.008    0.009
 fft_wrap_pw1pw2_40                   6 11.7    0.000    0.001    0.007    0.008
 analyt_conti_and_print               1 10.0    0.001    0.008    0.002    0.008
 calculate_dm_sparse                  3  7.0    0.000    0.000    0.008    0.008
 dbcsr_filter_anytype               164 10.2    0.001    0.001    0.008    0.008
 cp_dbcsr_plus_fm_fm_t                3  8.0    0.000    0.000    0.008    0.008
 modify_hartree_pot                   3 11.3    0.007    0.008    0.007    0.008
 transfer_pw2rs_40                    3 13.3    0.002    0.003    0.007    0.008
 initialize_rtbse_env                 1  3.0    0.007    0.007    0.008    0.008
 mulliken_population_analysis         1  7.0    0.000    0.000    0.007    0.008
 write_mo_set_low                     1  7.0    0.000    0.000    0.003    0.008
 cp_fm_to_fm_matrix                 163 11.0    0.006    0.007    0.006    0.007
 transform_ao_to_mo_covariant_f       6  4.0    0.000    0.000    0.007    0.007
 compute_v_transl                     1 12.0    0.007    0.007    0.007    0.007
 mp_comm_size                     17284  4.1    0.006    0.007    0.006    0.007
 transfer_rs2pw_40                    3 10.0    0.002    0.002    0.006    0.007
 build_core_hamiltonian_matrix        1  5.0    0.000    0.000    0.006    0.007
 external_control                     2  6.0    0.001    0.007    0.007    0.007
 cp_fm_finish_copy_general            4  9.2    0.006    0.007    0.006    0.007
 ddapc_eval_gfunc                     1  8.0    0.006    0.007    0.006    0.007
 make_basis_sm                        1  7.0    0.000    0.000    0.006    0.006
 qs_create_task_list                  1  6.0    0.000    0.000    0.006    0.006
 generate_qs_task_list                1  7.0    0.003    0.004    0.006    0.006
 create_product_matrix              334 10.6    0.001    0.001    0.005    0.006
 check_spline_interp_TabLR            1  3.0    0.001    0.006    0.001    0.006
 mp_max_i                           636  1.8    0.005    0.005    0.005    0.005
 mp_comm_rank                     17284  4.1    0.005    0.005    0.005    0.005
 mp_bcast_dm_src                    164  8.0    0.005    0.005    0.005    0.005
 apply_delta_pulse_MO                 1  3.0    0.000    0.000    0.005    0.005
 atomic_basis_at_grid_point           1  8.0    0.001    0.001    0.005    0.005
 determine_active_mo_window           1  3.0    0.005    0.005    0.005    0.005
 propagate_density                    1  4.0    0.000    0.000    0.005    0.005
 bch_propagate                        1  5.0    0.000    0.000    0.005    0.005
 cp_dbcsr_sm_fm_multiply              1  8.0    0.000    0.000    0.005    0.005
 cp_cfm_triangular_multiply           3  8.0    0.004    0.004    0.004    0.004
 pw_multiply_with                     3 10.3    0.004    0.004    0.004    0.004
 pw_poisson_rebuild                   3 10.3    0.004    0.004    0.004    0.004
 fm_add_on_diag                      60 10.0    0.003    0.004    0.003    0.004
 get_fft_scratch                     47 13.8    0.003    0.004    0.003    0.004
 cp_fm_gemm                           3  9.0    0.003    0.003    0.003    0.003
 mp_maxloc_dv                      1505  1.0    0.003    0.003    0.003    0.003
 cp_fm_symm                           2  8.0    0.003    0.003    0.003    0.003
 mp_min_d                             5 10.0    0.002    0.003    0.002    0.003
 check_positive_definite_overla       1  7.0    0.000    0.000    0.003    0.003
 create_tensors                       1  8.0    0.000    0.000    0.003    0.003
 reserve_blocks_within_radius         1  5.0    0.003    0.003    0.003    0.003
 cp_dbcsr_sm_fm_multiply_core         1  9.0    0.000    0.000    0.003    0.003
 cp_fm_start_copy_general             4  9.2    0.002    0.002    0.003    0.003
 print_matrix_occupation              3  9.0    0.000    0.000    0.002    0.003
 get_ddapc-charges                    3 12.3    0.000    0.000    0.003    0.003
 fill_phi_for_atom                    6  9.0    0.000    0.000    0.002    0.003
 mp_sum_i                           406  9.9    0.003    0.003    0.003    0.003
 cp_fm_triangular_multiply            4 10.2    0.003    0.003    0.003    0.003
 build_b_vector                       3 13.3    0.003    0.003    0.003    0.003
 build_overlap_matrix_low             1  6.0    0.002    0.002    0.003    0.003
 fft_wrap_pw1pw2_20                   6 11.7    0.000    0.000    0.003    0.003
 cfm_ikp_from_fm_Gamma                3  7.3    0.002    0.003    0.002    0.003
 create_fm_W_MIC_time                 1  9.0    0.000    0.000    0.002    0.003
 evaluate_core_matrix_traces          2  7.0    0.000    0.000    0.002    0.003
 calculate_ptrace_kp                  4  8.0    0.000    0.000    0.002    0.003
 dbcsr_dot                            4  9.0    0.000    0.000    0.002    0.003
 cp_fm_triangular_invert              1 11.0    0.002    0.003    0.002    0.003
 cp_cfm_triangular_invert             1  8.0    0.002    0.002    0.002    0.002
 grid_free_task_list                  1  2.0    0.002    0.002    0.002    0.002
 pw_scale                             9 10.8    0.002    0.002    0.002    0.002
 build_core_ppl                       1  6.0    0.002    0.002    0.002    0.002
 transfer_rs2pw_20                    3 10.0    0.001    0.001    0.002    0.002
 distribute_tasks                     1  8.0    0.001    0.001    0.002    0.002
 mp_bcast_av                        753  1.0    0.002    0.002    0.002    0.002
 create_3c_t                          2  9.0    0.000    0.000    0.002    0.002
 store_Z_lP_columns                   6 10.0    0.002    0.002    0.002    0.002
 compute_max_radius                   1  6.0    0.002    0.002    0.002    0.002
 mp_mem_avail_per_rank_GB             4  9.8    0.001    0.001    0.002    0.002
 allocate_and_fill_fm_ks_fm_s         1  7.0    0.000    0.000    0.002    0.002
 dbt_distribution_new_expert         10 11.5    0.000    0.000    0.002    0.002
 transfer_pw2rs_20                    3 13.3    0.001    0.001    0.002    0.002
 init_cube_info                       4  6.0    0.002    0.002    0.002    0.002
 scf_c_write_parameters               1  3.0    0.000    0.001    0.000    0.001
 dbt_tas_distribution_new            10 12.5    0.001    0.001    0.001    0.001
 create_3c_tensor                     2 10.0    0.000    0.000    0.001    0.001
 pw_grid_distribute                   5  7.2    0.001    0.001    0.001    0.001
 xc_pw_smooth                         2 11.0    0.000    0.000    0.001    0.001
 create_2c_t                          1  9.0    0.000    0.000    0.001    0.001
 mp_allgather_i                      10 10.4    0.001    0.001    0.001    0.001
 create_2c_tensor                     3 10.0    0.000    0.000    0.001    0.001
 multi_fft                            1  4.0    0.001    0.001    0.001    0.001
 mp_comm_split_type                   4 10.8    0.001    0.001    0.001    0.001
 mp_max_d                           210  9.9    0.001    0.001    0.001    0.001
 pw_nn_compose_r                     16  3.0    0.001    0.001    0.001    0.001
 cp_fm_set_all                       25  5.4    0.001    0.001    0.001    0.001
 load_balance_distributed             1  9.0    0.000    0.000    0.001    0.001
 dbcsr_crop_matrix                   11 11.2    0.000    0.000    0.001    0.001
 ewald_ddapc_pot                      1  8.0    0.000    0.000    0.001    0.001
 dbcsr_copy_submatrix                11 12.2    0.000    0.000    0.001    0.001
 get_current_loads                   10  9.8    0.000    0.000    0.001    0.001
 check_gw_input                       1  9.0    0.000    0.000    0.001    0.001
 resolve_memory_per_proc              1 10.0    0.000    0.000    0.001    0.001
 lattice_sum_R_to_k                   8 12.0    0.001    0.001    0.001    0.001
 compute_load_list                    2 10.0    0.000    0.000    0.001    0.001
 dbt_create_new                       5 11.0    0.000    0.000    0.001    0.001
 mp_alltoall_l                       11 10.7    0.001    0.001    0.001    0.001
 dbcsr_frobenius_norm                 1  5.0    0.001    0.001    0.001    0.001
 build_core_ppnl                      1  6.0    0.001    0.001    0.001    0.001
 build_kinetic_matrix_low             1  6.0    0.001    0.001    0.001    0.001
 fft3d_s                              1  2.0    0.000    0.000    0.001    0.001
 dbt_pgrid_create_expert             13 11.9    0.000    0.000    0.001    0.001
 cp_dbcsr_alloc_block_from_nbl       14  7.1    0.000    0.000    0.001    0.001
 dbt_tas_create_split                 6 13.2    0.000    0.000    0.001    0.001
 dbt_tas_create_split_rows_or_c       6 14.2    0.000    0.000    0.001    0.001
 mp_comm_split_direct                 8 13.6    0.001    0.001    0.001    0.001
 pw_pool_create_pw                  100 10.1    0.000    0.000    0.000    0.001
 mp_sum_lv                          147  2.2    0.001    0.001    0.001    0.001
 mp_sum_im                            8  7.5    0.001    0.001    0.001    0.001
 mp_bcast_iv_src                     26  7.1    0.000    0.001    0.000    0.001
 cp_fm_redistribute_start             6  9.3    0.000    0.000    0.000    0.001
 dbcsr_copy_into_existing             1  7.0    0.000    0.001    0.000    0.001
 dbcsr_index_compact                152 11.4    0.000    0.001    0.000    0.001
 grid_create_task_list                1  8.0    0.000    0.000    0.000    0.000
 continuation_pade                   58 11.0    0.000    0.000    0.000    0.000
 print_ri_rs_memory_estimate          1  8.0    0.000    0.000    0.000    0.000
 mp_bcast_iv                        158  2.8    0.000    0.000    0.000    0.000
 connectivity_control                 1  3.0    0.000    0.000    0.000    0.000
 allocate_matrices                    1  9.0    0.000    0.000    0.000    0.000
 build_qs_neighbor_lists              1  5.0    0.000    0.000    0.000    0.000
 mp_isend_dm3                        36 11.7    0.000    0.000    0.000    0.000
 mp_sum_b                           112 11.4    0.000    0.000    0.000    0.000
 mp_max_r                             1  2.0    0.000    0.000    0.000    0.000
 mp_comm_dup                         10 11.9    0.000    0.000    0.000    0.000
 classify_z_lp_atoms                  1 10.0    0.000    0.000    0.000    0.000
 cp_cfm_norm                          6  5.7    0.000    0.000    0.000    0.000
 get_sigma_c_newton_pade             58 12.0    0.000    0.000    0.000    0.000
 populate_C_active                    1  3.0    0.000    0.000    0.000    0.000
 pw_create_c1d                       55 11.6    0.000    0.000    0.000    0.000
 create_local_tasks                   1  9.0    0.000    0.000    0.000    0.000
 cp_fm_to_fm_submat_general           1  4.0    0.000    0.000    0.000    0.000
 mp_rank_compare                     46 14.0    0.000    0.000    0.000    0.000
 self_consistency_check               2  6.0    0.000    0.000    0.000    0.000
 topology_generate_bond               1  4.0    0.000    0.000    0.000    0.000
 cp_sm_mix                            2  7.0    0.000    0.000    0.000    0.000
 init_interaction_radii               3  7.3    0.000    0.000    0.000    0.000
 time_to_freq                         1 10.0    0.000    0.000    0.000    0.000
 allocate_blocks_v_L                  2 12.0    0.000    0.000    0.000    0.000
 write_qs_kind_set                    1  3.0    0.000    0.000    0.000    0.000
 distribution_3d_create               1 10.0    0.000    0.000    0.000    0.000
 get_parameters_from_qs_env           1  7.0    0.000    0.000    0.000    0.000
 print_Z_lP_progress                  7 10.0    0.000    0.000    0.000    0.000
 create_mat_munu                      1 10.0    0.000    0.000    0.000    0.000
 distribution_2d_create               2 11.0    0.000    0.000    0.000    0.000
 mp_alltoall_l11v                     1 10.0    0.000    0.000    0.000    0.000
 bs_env_release                       1  2.0    0.000    0.000    0.000    0.000
 topology_generate_bond_3             1  5.0    0.000    0.000    0.000    0.000
 dbcsr_make_dists_dense              24 11.7    0.000    0.000    0.000    0.000
 set_parallelization_parameters       1  9.0    0.000    0.000    0.000    0.000
 rs_grid_create_descriptor            4  6.0    0.000    0.000    0.000    0.000
 build_fist_neighbor_lists            1  6.0    0.000    0.000    0.000    0.000
 allocate_blocks_v_kp                 1 12.0    0.000    0.000    0.000    0.000
 cp_fm_to_fm_columns                  3  7.0    0.000    0.000    0.000    0.000
 pw_create_r3d                       55 10.5    0.000    0.000    0.000    0.000
 allocate_tmp                         1 11.0    0.000    0.000    0.000    0.000
 pw_pool_give_back_pw               102 10.3    0.000    0.000    0.000    0.000
 build_neighbor_lists                 1  7.0    0.000    0.000    0.000    0.000
 build_3c_neighbor_lists              1 10.0    0.000    0.000    0.000    0.000
 wfs_update                           1  4.0    0.000    0.000    0.000    0.000
 qs_scf_ensure_mos                    1  4.0    0.000    0.000    0.000    0.000
 write_qs_particle_coordinates        1  3.0    0.000    0.000    0.000    0.000
 optimize_load_list                   1 10.0    0.000    0.000    0.000    0.000
 dbt_tas_create_new                   5 12.0    0.000    0.000    0.000    0.000
 qs_env_rebuild_rho                   1  6.0    0.000    0.000    0.000    0.000
 build_neighbor_lists_RPA_2c_nl       4  8.2    0.000    0.000    0.000    0.000
 scale_rows_by_diag                  12 10.0    0.000    0.000    0.000    0.000
 build_neighbor_lists_sac_ppl         1  6.0    0.000    0.000    0.000    0.000
 set_blocks_to_matrix_v_kp            1 12.0    0.000    0.000    0.000    0.000
 dbcsr_index_prune_deleted           99 13.3    0.000    0.000    0.000    0.000
 qs_rho_rebuild                       1  7.0    0.000    0.000    0.000    0.000
 mp_isendrecv_dv                     63 14.3    0.000    0.000    0.000    0.000
 load_balance_replicated              1  9.0    0.000    0.000    0.000    0.000
 build_neighbor_lists_sap_ppnl        1  6.0    0.000    0.000    0.000    0.000
 dbt_destroy                          5  3.0    0.000    0.000    0.000    0.000
 initialize_singleparticle_hami       1  3.0    0.000    0.000    0.000    0.000
 cp_cfm_to_cfm_columns                1  8.0    0.000    0.000    0.000    0.000
 mp_cart_get                         89 13.8    0.000    0.000    0.000    0.000
 mixing_allocate                      1  4.0    0.000    0.000    0.000    0.000
 de_init_bs_env                       1  8.0    0.000    0.000    0.000    0.000
 write_orbpop                         1  8.0    0.000    0.000    0.000    0.000
 mp_irecv_dm3                        36 11.7    0.000    0.000    0.000    0.000
 write_dft_control                    1  3.0    0.000    0.000    0.000    0.000
 mpools_rebuild_fm_pools              1  4.0    0.000    0.000    0.000    0.000
 topology_connectivity_pack           1  3.0    0.000    0.000    0.000    0.000
 mp_allgather_l                      11 10.7    0.000    0.000    0.000    0.000
 init_qs_kind_set                     1  3.0    0.000    0.000    0.000    0.000
 init_qs_kind                         2  4.0    0.000    0.000    0.000    0.000
 write_particle_distances             1  3.0    0.000    0.000    0.000    0.000
 qs_scf_ensure_work_matrices          1  4.0    0.000    0.000    0.000    0.000
 rs_grid_create                       5  6.4    0.000    0.000    0.000    0.000
 init_orb_basis_set                   4  5.0    0.000    0.000    0.000    0.000
 build_neighbor_lists_GW_3c_nl_       1 11.0    0.000    0.000    0.000    0.000
 calculate_ecore_overlap              1  5.0    0.000    0.000    0.000    0.000
 distribute_molecules_2d              2  7.5    0.000    0.000    0.000    0.000
 topology_generate_bond_4             1  5.0    0.000    0.000    0.000    0.000
 qs_scf_write_mos                     3  6.3    0.000    0.000    0.000    0.000
 setup_kpoints_DOS_large_cell_G       1  7.0    0.000    0.000    0.000    0.000
 initialize_maximum_timestep          1  3.0    0.000    0.000    0.000    0.000
 get_n_ao_in_sphere                  88 10.0    0.000    0.000    0.000    0.000
 offload_create_buffer                7  7.6    0.000    0.000    0.000    0.000
 build_neighbor_lists_GW_3c_nl_       1 11.0    0.000    0.000    0.000    0.000
 mp_mem_used_per_rank_GB              2  9.5    0.000    0.000    0.000    0.000
 distribute_molecules_1d              2  7.0    0.000    0.000    0.000    0.000
 mp_sum_partial_im                    1 11.0    0.000    0.000    0.000    0.000
 write_mo_dependent_results           1  6.0    0.000    0.000    0.000    0.000
 restraint_control                    1  3.0    0.000    0.000    0.000    0.000
 kpoint_init_cell_index_simple        1  8.0    0.000    0.000    0.000    0.000
 mp_sum_root_iv                       1 11.0    0.000    0.000    0.000    0.000
 dbt_distribution_destroy            10 11.5    0.000    0.000    0.000    0.000
 reallocate_ft_traces                 1  4.0    0.000    0.000    0.000    0.000
 print_header_and_input_paramet       1  8.0    0.000    0.000    0.000    0.000
 get_i_j_atoms                        2 10.0    0.000    0.000    0.000    0.000
 build_neighbor_lists_sab_orb         1  6.0    0.000    0.000    0.000    0.000
 kpoint_init_cell_index               1  9.0    0.000    0.000    0.000    0.000
 atom2d_build                         8  9.0    0.000    0.000    0.000    0.000
 scf_c_read_parameters                1  3.0    0.000    0.000    0.000    0.000
 mp_bcast_i3                          1 11.0    0.000    0.000    0.000    0.000
 distribution_3d_destroy              1  9.0    0.000    0.000    0.000    0.000
 xc_libxc_check_functional            2  4.0    0.000    0.000    0.000    0.000
 qs_scf_initial_info                  1  5.0    0.000    0.000    0.000    0.000
 connectivity_control_check_ele       1  4.0    0.000    0.000    0.000    0.000
 build_neighbor_lists_sab_orb_s       1 11.0    0.000    0.000    0.000    0.000
 build_neighbor_lists_sab_all         1  6.0    0.000    0.000    0.000    0.000
 deallocate_blocks_v_L                2 12.0    0.000    0.000    0.000    0.000
 write_band_edges                     3  7.0    0.000    0.000    0.000    0.000
 get_all_VBM_CBM_bandgaps             1 10.0    0.000    0.000    0.000    0.000
 build_neighbor_lists_sab_core        1  6.0    0.000    0.000    0.000    0.000
 scf_env_cleanup                      1  4.0    0.000    0.000    0.000    0.000
 write_qs_control                     1  3.0    0.000    0.000    0.000    0.000
 pw_grid_allocate                     5  7.2    0.000    0.000    0.000    0.000
 cp_result_value_p_reallocate         4  7.8    0.000    0.000    0.000    0.000
 topology_coordinate_pack             1  3.0    0.000    0.000    0.000    0.000
 qs_scf_post_charges                  1  5.0    0.000    0.000    0.000    0.000
 set_mo_occupation_2                  3  7.0    0.000    0.000    0.000    0.000
 print_gw_rirs_input                  1  9.0    0.000    0.000    0.000    0.000
 qs_scf_loop_print                    2  6.0    0.000    0.000    0.000    0.000
 check_scf_gw_level_ordering          1 11.0    0.000    0.000    0.000    0.000
 read_qs_section                      1  3.0    0.000    0.000    0.000    0.000
 init_cphi_and_sphi                   4  6.0    0.000    0.000    0.000    0.000
 mp_min_lv                            4  8.0    0.000    0.000    0.000    0.000
 set_mo_occupation_1                  4  7.5    0.000    0.000    0.000    0.000
 check_cp2k_input                     1  2.0    0.000    0.000    0.000    0.000
 mp_cart_coords                      32  9.0    0.000    0.000    0.000    0.000
 mp_max_lv                            4  8.0    0.000    0.000    0.000    0.000
 read_bandstructure_input_param       1  7.0    0.000    0.000    0.000    0.000
 get_rpa_minimax_coeff_larger_g       1 10.0    0.000    0.000    0.000    0.000
 mp_bcast_i                           6 15.2    0.000    0.000    0.000    0.000
 initialize_density_matrix            1  3.0    0.000    0.000    0.000    0.000
 create_destination_list              1 10.0    0.000    0.000    0.000    0.000
 set_RI_basis_function_indices        1  9.0    0.000    0.000    0.000    0.000
 deallocate_blocks_v_kp               1 12.0    0.000    0.000    0.000    0.000
 read_smeagol_control                 1  3.0    0.000    0.000    0.000    0.000
 topology_generate_bond_2             1  5.0    0.000    0.000    0.000    0.000
 topology_generate_bond_1             1  5.0    0.000    0.000    0.000    0.000
 read_tddfpt2_control                 1  3.0    0.000    0.000    0.000    0.000
 mp_bcast_dv_src                      2  8.0    0.000    0.000    0.000    0.000
 make_basic_distribution              2  8.5    0.000    0.000    0.000    0.000
 mp_dims_create                       3 11.0    0.000    0.000    0.000    0.000
 write_molecule_kind_set              1  3.0    0.000    0.000    0.000    0.000
 check_generate_mol                   1  6.0    0.000    0.000    0.000    0.000
 qs_efield_local_operator             3  9.3    0.000    0.000    0.000    0.000
 mp_sum_lm3                           1  2.0    0.000    0.000    0.000    0.000
 topology_generate_molecule           1  4.0    0.000    0.000    0.000    0.000
 get_basis_offsets                    1  9.0    0.000    0.000    0.000    0.000
 precompute_ri_rs_radii               1  8.0    0.000    0.000    0.000    0.000
 topology_connectivity_pack_2         1  4.0    0.000    0.000    0.000    0.000
 wfi_extrapolate                      1  6.0    0.000    0.000    0.000    0.000
 mp_max_iv                            1 10.0    0.000    0.000    0.000    0.000
 cp_result_create                     1  2.0    0.000    0.000    0.000    0.000
 scf_env_release                      1  2.0    0.000    0.000    0.000    0.000
 topology_constraint_pack             1  3.0    0.000    0.000    0.000    0.000
 offload_free_buffer                  7  2.9    0.000    0.000    0.000    0.000
 topology_generate_onfo               1  4.0    0.000    0.000    0.000    0.000
 mp_bcast_av_src                      1  7.0    0.000    0.000    0.000    0.000
 topology_set_atm_mass                1  4.0    0.000    0.000    0.000    0.000
 setup_AO_and_RI_basis_set            1  8.0    0.000    0.000    0.000    0.000
 init_evGW0                           1  9.0    0.000    0.000    0.000    0.000
 sort_neighbor_lists                  1  7.0    0.000    0.000    0.000    0.000
 dump_info_core_hamiltonian           1  6.0    0.000    0.000    0.000    0.000
 topology_connectivity_pack_4         1  4.0    0.000    0.000    0.000    0.000
 print_header                         1  7.0    0.000    0.000    0.000    0.000
 mp_bcast_im                          8 10.2    0.000    0.000    0.000    0.000
 scf_c_create                         1  3.0    0.000    0.000    0.000    0.000
 resolve_grid_panels                  4  9.2    0.000    0.000    0.000    0.000
 compute_xkp                          3  9.3    0.000    0.000    0.000    0.000
 cp_fm_cleanup_copy_general           4  9.2    0.000    0.000    0.000    0.000
 cp_fm_scale                          2  6.5    0.000    0.000    0.000    0.000
 set_heuristic_parameters             2  7.5    0.000    0.000    0.000    0.000
 read_topology_section                1  3.0    0.000    0.000    0.000    0.000
 get_factor_and_xyz_min_max           1 12.0    0.000    0.000    0.000    0.000
 mp_min_i                             2  6.0    0.000    0.000    0.000    0.000
 cp_result_value_copy                 6  8.5    0.000    0.000    0.000    0.000
 init_scf_loop                        1  5.0    0.000    0.000    0.000    0.000
 check_diag                           6  8.3    0.000    0.000    0.000    0.000
 print_sphere_cutoff_table            1 10.0    0.000    0.000    0.000    0.000
 qs_scf_post_ps_implicit              1  7.0    0.000    0.000    0.000    0.000
 grid_free_basis_set                  2  2.0    0.000    0.000    0.000    0.000
 fix_atom_control                     1  3.0    0.000    0.000    0.000    0.000
 check_for_derivatives                2 11.0    0.000    0.000    0.000    0.000
 topology_generate_bond_6             1  5.0    0.000    0.000    0.000    0.000
 scf_env_create                       1  4.0    0.000    0.000    0.000    0.000
 lpt_assign_atoms                     1 10.0    0.000    0.000    0.000    0.000
 topology_connectivity_pack_11        1  4.0    0.000    0.000    0.000    0.000
 topology_connectivity_pack_14        1  4.0    0.000    0.000    0.000    0.000
 setup_kpoints_chi_eps_W              1  9.0    0.000    0.000    0.000    0.000
 qs_scf_post_kubo_transport           1  7.0    0.000    0.000    0.000    0.000
 cp_result_value_release             10  6.3    0.000    0.000    0.000    0.000
 qs_scf_post_transport                1  7.0    0.000    0.000    0.000    0.000
 spatial_atom_order                   1  9.0    0.000    0.000    0.000    0.000
 topology_connectivity_pack_10        1  4.0    0.000    0.000    0.000    0.000
 qs_ks_did_change                     4  6.0    0.000    0.000    0.000    0.000
 topology_connectivity_pack_9         1  4.0    0.000    0.000    0.000    0.000
 read_mgrid_section                   1  3.0    0.000    0.000    0.000    0.000
 wfi_create                           1  3.0    0.000    0.000    0.000    0.000
 qs_scf_post_elf                      1  5.0    0.000    0.000    0.000    0.000
 calculate_ecore_self                 1  5.0    0.000    0.000    0.000    0.000
 dbcsr_verify_matrix                  3  9.0    0.000    0.000    0.000    0.000
 mp_sum_r                             1  2.0    0.000    0.000    0.000    0.000
 cp_result_value_create              10  8.6    0.000    0.000    0.000    0.000
 grid_create_basis_set                2  8.0    0.000    0.000    0.000    0.000
 topology_connectivity_pack_1         1  4.0    0.000    0.000    0.000    0.000
 topology_connectivity_pack_5         1  4.0    0.000    0.000    0.000    0.000
 mp_sum_rv                            1  2.0    0.000    0.000    0.000    0.000
 get_exp_minimax_coeff_gw             1 10.0    0.000    0.000    0.000    0.000
 topology_generate_molecule_PAR       1  5.0    0.000    0.000    0.000    0.000
 topology_molecules_check             1  4.0    0.000    0.000    0.000    0.000
 cp_result_release                    1  2.0    0.000    0.000    0.000    0.000
 atom2d_cleanup                       8  9.0    0.000    0.000    0.000    0.000
 ec_env_release                       1  2.0    0.000    0.000    0.000    0.000
 kpoint_initialize                    1  2.0    0.000    0.000    0.000    0.000
 resp_fit                             1  6.0    0.000    0.000    0.000    0.000
 correct_obvious_fitting_fails        1 11.0    0.000    0.000    0.000    0.000
 read_rirs_input                      1  9.0    0.000    0.000    0.000    0.000
 create_local_fixd_list               1  4.0    0.000    0.000    0.000    0.000
 topology_connectivity_pack_12        1  4.0    0.000    0.000    0.000    0.000
 deallocate_tmp                       1 11.0    0.000    0.000    0.000    0.000
 linres_calculation_low               1  5.0    0.000    0.000    0.000    0.000
 fist_neighbor_init                   1  8.0    0.000    0.000    0.000    0.000
 topology_coordinate_pack_11          1  4.0    0.000    0.000    0.000    0.000
 topology_connectivity_pack_6         1  4.0    0.000    0.000    0.000    0.000
 mp_min_rv                            1  2.0    0.000    0.000    0.000    0.000
 topology_connectivity_pack_13        1  4.0    0.000    0.000    0.000    0.000
 mp_max_rv                            1  2.0    0.000    0.000    0.000    0.000
 topology_generate_bond_7             1  5.0    0.000    0.000    0.000    0.000
 cp_fm_redistribute_end               6  9.3    0.000    0.000    0.000    0.000
 transport_current                    1  8.0    0.000    0.000    0.000    0.000
 read_evgw0_input                     1  9.0    0.000    0.000    0.000    0.000
 topology_constraint_pack_1           1  4.0    0.000    0.000    0.000    0.000
 topology_coordinate_pack_1           1  4.0    0.000    0.000    0.000    0.000
 metadyn_read                         1  2.0    0.000    0.000    0.000    0.000
 write_structure_data                 1  3.0    0.000    0.000    0.000    0.000
 print_cutoff_radius_input            4 10.0    0.000    0.000    0.000    0.000
 balance_global_list                  1 11.0    0.000    0.000    0.000    0.000
 mp_isend_im2                         8 10.2    0.000    0.000    0.000    0.000
 cp_ddapc_apply_RF                    3 10.3    0.000    0.000    0.000    0.000
 external_c_potential                 1  5.0    0.000    0.000    0.000    0.000
 print_atomic_charges                 3 13.3    0.000    0.000    0.000    0.000
 allocate_GW_eigenvalues              1  8.0    0.000    0.000    0.000    0.000
 topology_coordinate_pack_7a          1  4.0    0.000    0.000    0.000    0.000
 qs_efield_berry_phase                3  9.3    0.000    0.000    0.000    0.000
 write_s_matrix_csr                   1  7.0    0.000    0.000    0.000    0.000
 write_ks_matrix_csr                  1  7.0    0.000    0.000    0.000    0.000
 qs_scf_post_xray                     1  5.0    0.000    0.000    0.000    0.000
 qs_scf_post_efg                      1  5.0    0.000    0.000    0.000    0.000
 cp_result_value_init                 4  7.8    0.000    0.000    0.000    0.000
 get_VBM_CBM_bandgaps                 3 11.0    0.000    0.000    0.000    0.000
 write_hcore_matrix_csr               1  7.0    0.000    0.000    0.000    0.000
 write_gto_basis_sets                 1  3.0    0.000    0.000    0.000    0.000
 mp_irecv_im2                         8 10.2    0.000    0.000    0.000    0.000
 qs_scf_post_moments                  1  5.0    0.000    0.000    0.000    0.000
 topology_connectivity_pack_7         1  4.0    0.000    0.000    0.000    0.000
 write_adjacency_matrix               1  7.0    0.000    0.000    0.000    0.000
 qs_scf_post_epr                      1  5.0    0.000    0.000    0.000    0.000
 qs_scf_post_molopt                   1  5.0    0.000    0.000    0.000    0.000
 qs_scf_post_local_energy             1  7.0    0.000    0.000    0.000    0.000
 allocate_qs_energy                   1  3.0    0.000    0.000    0.000    0.000
 write_p_matrix_csr                   1  7.0    0.000    0.000    0.000    0.000
 read_binary_coordinates              1  3.0    0.000    0.000    0.000    0.000
 handle_ext_restart                   1  3.0    0.000    0.000    0.000    0.000
 topology_connectivity_pack_3         1  4.0    0.000    0.000    0.000    0.000
 qs_scf_post_local_stress             1  7.0    0.000    0.000    0.000    0.000
 write_symmetry                       1  3.0    0.000    0.000    0.000    0.000
 write_dm_binary_restart              1  7.0    0.000    0.000    0.000    0.000
 mp_sum_dm3                           1  3.0    0.000    0.000    0.000    0.000
 topology_muc                         1  4.0    0.000    0.000    0.000    0.000
 topology_coordinate_pack_89          1  4.0    0.000    0.000    0.000    0.000
 topology_coordinate_pack_5           1  4.0    0.000    0.000    0.000    0.000
 qs_scf_post_et                       1  5.0    0.000    0.000    0.000    0.000
 square_mesh                          2 11.0    0.000    0.000    0.000    0.000
 write_mos_molden                     1  7.0    0.000    0.000    0.000    0.000
 add_external_potential               1  3.0    0.000    0.000    0.000    0.000
 reset_and_clean_bs_env               1  9.0    0.000    0.000    0.000    0.000
 plan_grid_panels                     1 10.0    0.000    0.000    0.000    0.000
 topology_connectivity_pack_13_       1  4.0    0.000    0.000    0.000    0.000
 calculate_ecore_efield               1  5.0    0.000    0.000    0.000    0.000
 wfn_mix                              1  5.0    0.000    0.000    0.000    0.000
 topology_connectivity_pack_11_       1  4.0    0.000    0.000    0.000    0.000
 ps_implicit_release                  2  4.0    0.000    0.000    0.000    0.000
 topology_constraint_pack_7           1  4.0    0.000    0.000    0.000    0.000
 topology_connectivity_pack_14_       1  4.0    0.000    0.000    0.000    0.000
 read_auto_ri_input                   1  9.0    0.000    0.000    0.000    0.000
 topology_connectivity_pack_12_       1  4.0    0.000    0.000    0.000    0.000
 wannier90_interface                  1  5.0    0.000    0.000    0.000    0.000
 tddfpt2_control_release              2  2.0    0.000    0.000    0.000    0.000
 fp_env_read                          1  2.0    0.000    0.000    0.000    0.000
 rt_bse_ri_rs_ensure_grid             2  5.0    0.000    0.000    0.000    0.000
 topology_coordinate_pack_6           1  4.0    0.000    0.000    0.000    0.000
 topology_coordinate_pack_2           1  4.0    0.000    0.000    0.000    0.000
 topology_generate_bend               1  4.0    0.000    0.000    0.000    0.000
 topology_generate_impr               1  4.0    0.000    0.000    0.000    0.000
 auto_ri_release                      1  3.0    0.000    0.000    0.000    0.000
 external_e_potential                 1  5.0    0.000    0.000    0.000    0.000
 topology_coordinate_pack_3           1  4.0    0.000    0.000    0.000    0.000
 external_read_density                1  5.0    0.000    0.000    0.000    0.000
 tddfpt2_control_create               2  3.0    0.000    0.000    0.000    0.000
 compute_matrix_w                     1  4.0    0.000    0.000    0.000    0.000
 topology_connectivity_pack_8         1  4.0    0.000    0.000    0.000    0.000
 rescale_forces                       1  3.0    0.000    0.000    0.000    0.000
 init_ec_env                          1  2.0    0.000    0.000    0.000    0.000
 topology_generate_dihe               1  4.0    0.000    0.000    0.000    0.000
 topology_coordinate_pack_7b          1  4.0    0.000    0.000    0.000    0.000
 topology_constraint_pack_3           1  4.0    0.000    0.000    0.000    0.000
 smeagol_control_release              1  2.0    0.000    0.000    0.000    0.000
 pw_env_create                        1  5.0    0.000    0.000    0.000    0.000
 topology_coordinate_pack_4           1  4.0    0.000    0.000    0.000    0.000
 topology_constraint_pack_5           1  4.0    0.000    0.000    0.000    0.000
 smeagol_control_create               1  3.0    0.000    0.000    0.000    0.000
 topology_constraint_pack_4           1  4.0    0.000    0.000    0.000    0.000
 topology_constraint_pack_2           1  4.0    0.000    0.000    0.000    0.000
 check_qs_kind_set                    1  3.0    0.000    0.000    0.000    0.000
 topology_connectivity_pack_1.1       1  4.0    0.000    0.000    0.000    0.000
 fp_env_write                         1  2.0    0.000    0.000    0.000    0.000
 topology_generate_ub                 1  4.0    0.000    0.000    0.000    0.000
 topology_constraint_pack_6           1  4.0    0.000    0.000    0.000    0.000
 topology_coordinate_pack_10          1  4.0    0.000    0.000    0.000    0.000
 excited_state_energy                 1  4.0    0.000    0.000    0.000    0.000
 init_harris_env                      1  3.0    0.000    0.000    0.000    0.000
 cleanup_scf_loop                     1  6.0    0.000    0.000    0.000    0.000
 -------------------------------------------------------------------------------

 The number of warnings for this run is : 2
 
 -------------------------------------------------------------------------------
  **** **** ******  **  PROGRAM ENDED AT                 2026-09-28 13:44:04.093
 ***** ** ***  *** **   PROGRAM RAN ON                                 n2lcn0163
 **    ****   ******    PROGRAM RAN BY                                  metdyn07
 ***** **    ** ** **   PROGRAM PROCESS ID                                746426
  **** **  *******  **  PROGRAM STOPPED IN /scratch/hpc-prf-metdyn/metdyn07_Rita
                                           j/otus/max-nanographene/2
