CPU_SET_HEX_STR_SIZE: 257, Size of mstr: 257
cpu-bind=MASK - cn0946, task  0  0 [2693654]: mask |BBBBBBBB|--------|--------|--------|--------|--------|--------|--------|--------|BBBB----|--------|--------||||--------|--------|--------|--------|--------|--------|--------|--------|--------|--------|--------|--------| set
CPU_SET_HEX_STR_SIZE: 257, Size of mstr: 257
cpu-bind=MASK - cn0946, task  1  1 [2693655]: mask |--------|--------|--------|BBBBBBBB|--------|--------|--------|--------|--------|----BBBB|--------|--------||||--------|--------|--------|--------|--------|--------|--------|--------|--------|--------|--------|--------| set
CPU_SET_HEX_STR_SIZE: 257, Size of mstr: 257
cpu-bind=MASK - cn0946, task  2  2 [2693656]: mask |--------|BBBB----|--------|--------|--------|--------|BBBBBBBB|--------|--------|--------|--------|--------||||--------|--------|--------|--------|--------|--------|--------|--------|--------|--------|--------|--------| set
CPU_SET_HEX_STR_SIZE: 257, Size of mstr: 257
cpu-bind=MASK - cn0946, task  3  3 [2693657]: mask |--------|----BBBB|--------|--------|--------|--------|--------|--------|--------|--------|BBBBBBBB|--------||||--------|--------|--------|--------|--------|--------|--------|--------|--------|--------|--------|--------| set
CPU_SET_HEX_STR_SIZE: 257, Size of mstr: 257
cpu-bind=MASK - cn0946, task  4  4 [2693658]: mask |--------|--------|--------|--------|BBBBBBBB|--------|--------|BBBB----|--------|--------|--------|--------||||--------|--------|--------|--------|--------|--------|--------|--------|--------|--------|--------|--------| set
CPU_SET_HEX_STR_SIZE: 257, Size of mstr: 257
cpu-bind=MASK - cn0946, task  5  5 [2693659]: mask |--------|--------|BBBBBBBB|--------|--------|--------|--------|----BBBB|--------|--------|--------|--------||||--------|--------|--------|--------|--------|--------|--------|--------|--------|--------|--------|--------| set
CPU_SET_HEX_STR_SIZE: 257, Size of mstr: 257
cpu-bind=MASK - cn0946, task  6  6 [2693660]: mask |--------|--------|--------|--------|--------|BBBB----|--------|--------|--------|--------|--------|BBBBBBBB||||--------|--------|--------|--------|--------|--------|--------|--------|--------|--------|--------|--------| set
CPU_SET_HEX_STR_SIZE: 257, Size of mstr: 257
cpu-bind=MASK - cn0946, task  7  7 [2693661]: mask |--------|--------|--------|--------|--------|----BBBB|--------|--------|BBBBBBBB|--------|--------|--------||||--------|--------|--------|--------|--------|--------|--------|--------|--------|--------|--------|--------| set
CPU_SET_HEX_STR_SIZE: 257, Size of mstr: 257
cpu-bind=MASK - cn0946, task  8  8 [2693662]: mask |--------|--------|--------|--------|--------|--------|--------|--------|--------|--------|--------|--------||||BBBBBBBB|--------|--------|--------|--------|--------|--------|--------|--------|BBBB----|--------|--------| set
CPU_SET_HEX_STR_SIZE: 257, Size of mstr: 257
cpu-bind=MASK - cn0946, task  9  9 [2693663]: mask |--------|--------|--------|--------|--------|--------|--------|--------|--------|--------|--------|--------||||--------|--------|--------|BBBBBBBB|--------|--------|--------|--------|--------|----BBBB|--------|--------| set
CPU_SET_HEX_STR_SIZE: 257, Size of mstr: 257
cpu-bind=MASK - cn0946, task 10 10 [2693664]: mask |--------|--------|--------|--------|--------|--------|--------|--------|--------|--------|--------|--------||||--------|BBBB----|--------|--------|--------|--------|BBBBBBBB|--------|--------|--------|--------|--------| set
CPU_SET_HEX_STR_SIZE: 257, Size of mstr: 257
cpu-bind=MASK - cn0946, task 11 11 [2693665]: mask |--------|--------|--------|--------|--------|--------|--------|--------|--------|--------|--------|--------||||--------|----BBBB|--------|--------|--------|--------|--------|--------|--------|--------|BBBBBBBB|--------| set
CPU_SET_HEX_STR_SIZE: 257, Size of mstr: 257
cpu-bind=MASK - cn0946, task 12 12 [2693666]: mask |--------|--------|--------|--------|--------|--------|--------|--------|--------|--------|--------|--------||||--------|--------|--------|--------|BBBBBBBB|--------|--------|BBBB----|--------|--------|--------|--------| set
CPU_SET_HEX_STR_SIZE: 257, Size of mstr: 257
cpu-bind=MASK - cn0946, task 13 13 [2693667]: mask |--------|--------|--------|--------|--------|--------|--------|--------|--------|--------|--------|--------||||--------|--------|BBBBBBBB|--------|--------|--------|--------|----BBBB|--------|--------|--------|--------| set
CPU_SET_HEX_STR_SIZE: 257, Size of mstr: 257
cpu-bind=MASK - cn0946, task 14 14 [2693668]: mask |--------|--------|--------|--------|--------|--------|--------|--------|--------|--------|--------|--------||||--------|--------|--------|--------|--------|BBBB----|--------|--------|--------|--------|--------|BBBBBBBB| set
CPU_SET_HEX_STR_SIZE: 257, Size of mstr: 257
cpu-bind=MASK - cn0946, task 15 15 [2693669]: mask |--------|--------|--------|--------|--------|--------|--------|--------|--------|--------|--------|--------||||--------|--------|--------|--------|--------|----BBBB|--------|--------|BBBBBBBB|--------|--------|--------| set
 DBCSR| CPU Multiplication driver                                           XSMM (U)
 DBCSR| Multrec recursion limit                                              512 (U)
 DBCSR| Multiplication stack size                                           1000 (D)
 DBCSR| Maximum elements for images                                    UNLIMITED (U)
 DBCSR| Multiplicative factor virtual images                                   1 (U)
 DBCSR| Use multiplication densification                                       T (D)
 DBCSR| Multiplication size stacks                                             3 (U)
 DBCSR| Use memory pool for CPU allocation                                     F (U)
 DBCSR| Number of 3D layers                                               SINGLE (U)
 DBCSR| Use MPI memory allocation                                              F (U)
 DBCSR| Use RMA algorithm                                                      F (U)
 DBCSR| Use Communication thread                                               T (U)
 DBCSR| Communication thread load                                             45 (D)
 DBCSR| MPI: My process id                                                     0
 DBCSR| MPI: Number of processes                                              16
 DBCSR| OMP: Current number of threads                                        12
 DBCSR| OMP: Max number of threads                                            12
 DBCSR| Split modifier for TAS multiplication algorithm                  1.0E+00 (U)


  **** **** ******  **  PROGRAM STARTED AT               2026-09-30 16:24:03.268
 ***** ** ***  *** **   PROGRAM STARTED ON                                cn0946
 **    ****   ******    PROGRAM STARTED BY                              metdyn07
 ***** **    ** ** **   PROGRAM PROCESS ID                               2693654
  **** **  *******  **  PROGRAM STARTED IN /scratch/hpc-prf-metdyn/metdyn07_Rita
                                           j/project-max-rtbse/g0w0_rtbse_compar
                                           ison_tuned/1/rirs_opt/gterm

 CP2K| version string:                 CP2K version 2026.2 (Development Version)
 CP2K| source code revision number:                                   0005d2399e
 CP2K| cp2kflags: omp libint fftw3 libxc elpa parallel scalapack mpi_f08 cosma l
 CP2K|            ibxs libxsmm plumed2 spglib openblas sirius libvori libbqb lib
 CP2K|            bvdwxc hdf5 greenx
 CP2K| is freely available from                            https://www.cp2k.org/
 CP2K| Program compiled at                                   2026-09-14 14:10:14
 CP2K| Program compiled on                                                login4
 CP2K| Program compiled for                                               x86_64
 CP2K| Data directory path    /pc2/groups/hpc-prf-metdyn/metdyn07_Ritaj/implemen
 CP2K| Input file name                                                 input.inp

 GLOBAL| Force Environment number                                              1
 GLOBAL| Basis set file name             BASIS_GTH_MOLOPT_AUG_for_excited_states
 GLOBAL| Potential file name                                      GTH_POTENTIALS
 GLOBAL| MM Potential file name                                     MM_POTENTIAL
 GLOBAL| Coordinate file name                                          struc.xyz
 GLOBAL| Method name                                                        CP2K
 GLOBAL| Project name                                                      rec_4
 GLOBAL| Run type                                                 RT_PROPAGATION
 GLOBAL| FFT library                                                       FFTW3
 GLOBAL| Diagonalization library                                            ELPA
 GLOBAL| Cholesky decomposition library                                ScaLAPACK
 GLOBAL| DGEMM library                                                      BLAS
 GLOBAL| Minimum number of eigenvectors for ELPA usage                        64
 GLOBAL| Orthonormality check for eigenvectors                          DISABLED
 GLOBAL| Matrix multiplication library                                     COSMA
 GLOBAL| All-to-all communication in single precision                          F
 GLOBAL| Grid backend                                                       AUTO
 GLOBAL| Global print level                                               MEDIUM
 GLOBAL| MPI I/O enabled                                                       T
 GLOBAL| Total number of message passing processes                            16
 GLOBAL| Number of distributed systems (nodes)                                 1
 GLOBAL| Number of threads for this process                                   12
 GLOBAL| This output is from process                                           0
 GLOBAL| OpenMP stack size per thread (OMP_STACKSIZE)                    default
 GLOBAL| CPU model name                          AMD EPYC 9655 96-Core Processor
 GLOBAL| CPUID                                                              1003
 GLOBAL| Compiled for CPUID                                                    0

 *** HINT in environment.F:968 :: The compiler target (generic) used to ***
 *** build this binary does not enable all instruction-set extensions   ***
 *** available on this CPU (x86_avx512). Consider reconfiguring and     ***
 *** rebuilding CP2K for this target system to enable them.             ***


 MEMORY| system memory details [Kb]
 MEMORY|                        rank 0           min           max       average
 MEMORY| MemTotal            791034004     791034004     791034004     791034004
 MEMORY| MemFree             763310724     763310724     763310724     763310724
 MEMORY| Buffers                  1068          1068          1068          1068
 MEMORY| Cached                3093228       3093228       3093228       3093228
 MEMORY| Slab                  1855696       1855696       1855696       1855696
 MEMORY| SReclaimable           547500        547500        547500        547500
 MEMORY| MemLikelyFree       766952520     766952520     766952520     766952520


 *** Fundamental physical constants (SI units) ***

 *** Literature: B. J. Mohr and B. N. Taylor,
 ***             CODATA recommended values of the fundamental physical
 ***             constants: 2006, Web Version 5.1
 ***             http://physics.nist.gov/constants

 Speed of light in vacuum [m/s]                             2.99792458000000E+08
 Magnetic constant or permeability of vacuum [N/A**2]       1.25663706143592E-06
 Electric constant or permittivity of vacuum [F/m]          8.85418781762039E-12
 Planck constant (h) [J*s]                                  6.62606896000000E-34
 Planck constant (h-bar) [J*s]                              1.05457162825177E-34
 Elementary charge [C]                                      1.60217648700000E-19
 Electron mass [kg]                                         9.10938215000000E-31
 Electron g factor [ ]                                     -2.00231930436220E+00
 Proton mass [kg]                                           1.67262163700000E-27
 Fine-structure constant                                    7.29735253760000E-03
 Rydberg constant [1/m]                                     1.09737315685270E+07
 Avogadro constant [1/mol]                                  6.02214179000000E+23
 Boltzmann constant [J/K]                                   1.38065040000000E-23
 Atomic mass unit [kg]                                      1.66053878200000E-27
 Bohr radius [m]                                            5.29177208590000E-11

 *** Conversion factors ***

 [u] -> [a.u.]                                              1.82288848426455E+03
 [Angstrom] -> [Bohr] = [a.u.]                              1.88972613288564E+00
 [a.u.] = [Bohr] -> [Angstrom]                              5.29177208590000E-01
 [a.u.] -> [s]                                              2.41888432650478E-17
 [a.u.] -> [fs]                                             2.41888432650478E-02
 [a.u.] -> [J]                                              4.35974393937059E-18
 [a.u.] -> [N]                                              8.23872205491840E-08
 [a.u.] -> [K]                                              3.15774647902944E+05
 [a.u.] -> [kJ/mol]                                         2.62549961709828E+03
 [a.u.] -> [kcal/mol]                                       6.27509468713739E+02
 [a.u.] -> [Pa]                                             2.94210107994716E+13
 [a.u.] -> [bar]                                            2.94210107994716E+08
 [a.u.] -> [atm]                                            2.90362800883016E+08
 [a.u.] -> [eV]                                             2.72113838565563E+01
 [a.u.] -> [Hz]                                             6.57968392072181E+15
 [a.u.] -> [1/cm] (wave numbers)                            2.19474631370540E+05
 [a.u./Bohr**2] -> [1/cm]                                   5.14048714338585E+03
 

 CELL| Volume [angstrom^3]:                                          3326.883945
 CELL| Vector a [angstrom]:      19.190     0.000     0.000   |a| =    19.190000
 CELL| Vector b [angstrom]:       0.000    15.010     0.000   |b| =    15.010000
 CELL| Vector c [angstrom]:       0.000     0.000    11.550   |c| =    11.550000
 CELL| Angle (b,c), alpha [degree]:                                    90.000000
 CELL| Angle (a,c), beta  [degree]:                                    90.000000
 CELL| Angle (a,b), gamma [degree]:                                    90.000000
 CELL| Numerically orthorhombic:                                             YES
 CELL| Periodicity                                                          NONE

 CELL_REF| Volume [angstrom^3]:                                      3326.883945
 CELL_REF| Vector a [angstrom    19.190     0.000     0.000   |a| =    19.190000
 CELL_REF| Vector b [angstrom     0.000    15.010     0.000   |b| =    15.010000
 CELL_REF| Vector c [angstrom     0.000     0.000    11.550   |c| =    11.550000
 CELL_REF| Angle (b,c), alpha [degree]:                                90.000000
 CELL_REF| Angle (a,c), beta  [degree]:                                90.000000
 CELL_REF| Angle (a,b), gamma [degree]:                                90.000000
 CELL_REF| Numerically orthorhombic:                                         YES
 CELL_REF| Periodicity                                                      NONE

 GENERATE|  Preliminary Number of Bonds generated:                             0
 GENERATE|  Achieved consistency in connectivity generation.

 *******************************************************************************
 *******************************************************************************
 **                                                                           **
 **     #####                         ##              ##                      **
 **    ##   ##            ##          ##              ##                      **
 **   ##     ##                       ##            ######                    **
 **   ##     ##  ##   ##  ##   #####  ##  ##   ####   ##    #####    #####    **
 **   ##     ##  ##   ##  ##  ##      ## ##   ##      ##   ##   ##  ##   ##   **
 **   ##  ## ##  ##   ##  ##  ##      ####     ###    ##   ######   ######    **
 **    ##  ###   ##   ##  ##  ##      ## ##      ##   ##   ##       ##        **
 **     #######   #####   ##   #####  ##  ##  ####    ##    #####   ##        **
 **           ##                                                    ##        **
 **                                                                           **
 **                                                ... make the atoms dance   **
 **                                                                           **
 **            Copyright (C) by CP2K developers group (2000-2026)             **
 **                      J. Chem. Phys. 152, 194103 (2020)                    **
 **                                                                           **
 *******************************************************************************

 DFT| Spin restricted Kohn-Sham (RKS) calculation                            RKS
 DFT| Multiplicity                                                             1
 DFT| Number of spin states                                                    1
 DFT| Charge                                                                   0
 DFT| Self-interaction correction (SIC)                                       NO
 DFT| Cutoffs: density                                              1.000000E-10
 DFT|          gradient                                             1.000000E-10
 DFT|          tau                                                  1.000000E-10
 DFT|          cutoff_smoothing_range                               0.000000E+00
 DFT| XC density smoothing                                                  NONE
 DFT| XC derivatives                                                          PW

 FUNCTIONAL| PBE:
 FUNCTIONAL| J.P.Perdew, K.Burke, M.Ernzerhof, Phys. Rev. Letter, vol. 77, n 18,
 FUNCTIONAL|  pp. 3865-3868, (1996) {spin unpolarized}                          


 QS| Method:                                                                 GPW
 QS| Density plane wave grid type                        NON-SPHERICAL FULLSPACE
 QS| Number of grid levels:                                                    4
 QS| Density cutoff [a.u.]:                                                300.0
 QS| Multi grid cutoff [a.u.]: 1) grid level                               300.0
 QS|                           2) grid level                               100.0
 QS|                           3) grid level                                33.3
 QS|                           4) grid level                                11.1
 QS| Grid level progression factor:                                          3.0
 QS| Relative density cutoff [a.u.]:                                        30.0
 QS| Interaction thresholds: eps_pgf_orb:                                3.2E-08
 QS|                         eps_filter_matrix:                          0.0E+00
 QS|                         eps_core_charge:                            1.0E-17
 QS|                         eps_rho_gspace:                             1.0E-15
 QS|                         eps_rho_rspace:                             1.0E-15
 QS|                         eps_gvg_rspace:                             3.2E-08
 QS|                         eps_ppl:                                    1.0E-02
 QS|                         eps_ppnl:                                   3.2E-10


 ATOMIC KIND INFORMATION

  1. Atomic kind: H                                     Number of atoms:      12

     Orbital Basis Set                                 aug-SZV-MOLOPT-GTH-tier-2

       Number of orbital shell sets:                                           1
       Number of orbital shells:                                               4
       Number of primitive Cartesian functions:                                7
       Number of Cartesian basis functions:                                    6
       Number of spherical basis functions:                                    6
       Norm type:                                                              2

       Normalised Cartesian orbitals:

                        Set   Shell   Orbital            Exponent    Coefficient

                          1       1    2s                0.050000       0.000000
                                                         0.082193      -0.014019
                                                         0.239116      -0.107525
                                                         0.450000       0.000000
                                                         0.791502      -0.258419
                                                         2.680223      -0.177618
                                                        10.068468      -0.133023

                          1       2    3s                0.050000       0.064974
                                                         0.082193       0.029198
                                                         0.239116      -0.007574
                                                         0.450000      -0.090795
                                                         0.791502      -0.025739
                                                         2.680223       0.000002
                                                        10.068468       0.000000

                          1       3    4s                0.050000      -0.067626
                                                         0.082193       0.244167
                                                         0.239116      -0.094768
                                                         0.450000      -0.043967
                                                         0.791502      -0.043572
                                                         2.680223      -0.153771
                                                        10.068468       0.000000

                          1       4    3px               0.050000       0.038628
                                                         0.082193      -0.015554
                                                         0.239116       0.034455
                                                         0.450000       0.013474
                                                         0.791502      -0.005076
                                                         2.680223       0.028739
                                                        10.068468       0.000000
                          1       4    3py               0.050000       0.038628
                                                         0.082193      -0.015554
                                                         0.239116       0.034455
                                                         0.450000       0.013474
                                                         0.791502      -0.005076
                                                         2.680223       0.028739
                                                        10.068468       0.000000
                          1       4    3pz               0.050000       0.038628
                                                         0.082193      -0.015554
                                                         0.239116       0.034455
                                                         0.450000       0.013474
                                                         0.791502      -0.005076
                                                         2.680223       0.028739
                                                        10.068468       0.000000

     RI Auxiliary Basis Set             RI_aug-SZV-MOLOPT-GTH-tier-2_N_RI_005_s_

       Number of orbital shell sets:                                           3
       Number of orbital shells:                                               3
       Number of primitive Cartesian functions:                                3
       Number of Cartesian basis functions:                                    5
       Number of spherical basis functions:                                    5
       Norm type:                                                              2

       Normalised Cartesian orbitals:

                        Set   Shell   Orbital            Exponent    Coefficient

                          1       1    1s                0.184491       0.200628

                          2       1    2s                3.030559       1.637013

                          3       1    3px               0.610174       0.768701
                          3       1    3py               0.610174       0.768701
                          3       1    3pz               0.610174       0.768701

       Atomic covalent radius [Angstrom]:                                  0.320

       Atomic van der Waals radius [Angstrom]:                             1.090

     GTH Potential information for                                    GTH-PBE-q1

       Description:                       Goedecker-Teter-Hutter pseudopotential
                                           Goedecker et al., PRB 54, 1703 (1996)
                                          Hartwigsen et al., PRB 58, 3641 (1998)
                                                      Krack, TCA 114, 145 (2005)

       Gaussian exponent of the core charge distribution:              12.500000
       Electronic configuration (s p d ...):                                   1

       Parameters of the local part of the GTH pseudopotential:

                          rloc        C1          C2          C3          C4
                        0.200000   -4.178900    0.724463

  2. Atomic kind: C                                     Number of atoms:      14

     Orbital Basis Set                                 aug-SZV-MOLOPT-GTH-tier-2

       Number of orbital shell sets:                                           1
       Number of orbital shells:                                               5
       Number of primitive Cartesian functions:                                6
       Number of Cartesian basis functions:                                   14
       Number of spherical basis functions:                                   13
       Norm type:                                                              2

       Normalised Cartesian orbitals:

                        Set   Shell   Orbital            Exponent    Coefficient

                          1       1    2s                0.070000       0.000000
                                                         0.128212      -0.022789
                                                         0.348157      -0.219794
                                                         0.769911      -0.209686
                                                         2.113016       0.213043
                                                         5.605331       0.322515

                          1       2    3s                0.070000       0.133509
                                                         0.128212      -0.041206
                                                         0.348157      -0.081784
                                                         0.769911      -0.003005
                                                         2.113016       0.000000
                                                         5.605331       0.000000

                          1       3    3px               0.070000       0.000000
                                                         0.128212      -0.027849
                                                         0.348157      -0.139743
                                                         0.769911      -0.374851
                                                         2.113016      -0.642521
                                                         5.605331      -0.703879
                          1       3    3py               0.070000       0.000000
                                                         0.128212      -0.027849
                                                         0.348157      -0.139743
                                                         0.769911      -0.374851
                                                         2.113016      -0.642521
                                                         5.605331      -0.703879
                          1       3    3pz               0.070000       0.000000
                                                         0.128212      -0.027849
                                                         0.348157      -0.139743
                                                         0.769911      -0.374851
                                                         2.113016      -0.642521
                                                         5.605331      -0.703879

                          1       4    4px               0.070000       0.033242
                                                         0.128212       0.023307
                                                         0.348157       0.113522
                                                         0.769911      -0.094955
                                                         2.113016       0.000000
                                                         5.605331       0.000000
                          1       4    4py               0.070000       0.033242
                                                         0.128212       0.023307
                                                         0.348157       0.113522
                                                         0.769911      -0.094955
                                                         2.113016       0.000000
                                                         5.605331       0.000000
                          1       4    4pz               0.070000       0.033242
                                                         0.128212       0.023307
                                                         0.348157       0.113522
                                                         0.769911      -0.094955
                                                         2.113016       0.000000
                                                         5.605331       0.000000

                          1       5    4dx2              0.070000      -0.000111
                                                         0.128212       0.037828
                                                         0.348157       0.043639
                                                         0.769911       0.120124
                                                         2.113016       0.000000
                                                         5.605331       0.000000
                          1       5    4dxy              0.070000      -0.000193
                                                         0.128212       0.065520
                                                         0.348157       0.075585
                                                         0.769911       0.208061
                                                         2.113016       0.000000
                                                         5.605331       0.000000
                          1       5    4dxz              0.070000      -0.000193
                                                         0.128212       0.065520
                                                         0.348157       0.075585
                                                         0.769911       0.208061
                                                         2.113016       0.000000
                                                         5.605331       0.000000
                          1       5    4dy2              0.070000      -0.000111
                                                         0.128212       0.037828
                                                         0.348157       0.043639
                                                         0.769911       0.120124
                                                         2.113016       0.000000
                                                         5.605331       0.000000
                          1       5    4dyz              0.070000      -0.000193
                                                         0.128212       0.065520
                                                         0.348157       0.075585
                                                         0.769911       0.208061
                                                         2.113016       0.000000
                                                         5.605331       0.000000
                          1       5    4dz2              0.070000      -0.000111
                                                         0.128212       0.037828
                                                         0.348157       0.043639
                                                         0.769911       0.120124
                                                         2.113016       0.000000
                                                         5.605331       0.000000

     RI Auxiliary Basis Set             RI_aug-SZV-MOLOPT-GTH-tier-2_N_RI_030_s_

       Number of orbital shell sets:                                          10
       Number of orbital shells:                                              10
       Number of primitive Cartesian functions:                               10
       Number of Cartesian basis functions:                                   35
       Number of spherical basis functions:                                   30
       Norm type:                                                              2

       Normalised Cartesian orbitals:

                        Set   Shell   Orbital            Exponent    Coefficient

                          1       1    1s                0.191848       0.206599

                          2       1    2s                0.736300       0.566502

                          3       1    3s                2.917592       1.591031

                          4       1    4s                9.448168       3.840792

                          5       1    5px               0.281885       0.292772
                          5       1    5py               0.281885       0.292772
                          5       1    5pz               0.281885       0.292772

                          6       1    6px               0.984576       1.397983
                          6       1    6py               0.984576       1.397983
                          6       1    6pz               0.984576       1.397983

                          7       1    7px               2.475409       4.425871
                          7       1    7py               2.475409       4.425871
                          7       1    7pz               2.475409       4.425871

                          8       1    8dx2              0.347629       0.259037
                          8       1    8dxy              0.347629       0.448666
                          8       1    8dxz              0.347629       0.448666
                          8       1    8dy2              0.347629       0.259037
                          8       1    8dyz              0.347629       0.448666
                          8       1    8dz2              0.347629       0.259037

                          9       1    9dx2              1.822216       4.703911
                          9       1    9dxy              1.822216       8.147414
                          9       1    9dxz              1.822216       8.147414
                          9       1    9dy2              1.822216       4.703911
                          9       1    9dyz              1.822216       8.147414
                          9       1    9dz2              1.822216       4.703911

                         10       1   10fx3              0.497967       0.306659
                         10       1   10fx2y             0.497967       0.685710
                         10       1   10fx2z             0.497967       0.685710
                         10       1   10fxy2             0.497967       0.685710
                         10       1   10fxyz             0.497967       1.187685
                         10       1   10fxz2             0.497967       0.685710
                         10       1   10fy3              0.497967       0.306659
                         10       1   10fy2z             0.497967       0.685710
                         10       1   10fyz2             0.497967       0.685710
                         10       1   10fz3              0.497967       0.306659

       Atomic covalent radius [Angstrom]:                                  0.770

       Atomic van der Waals radius [Angstrom]:                             1.700

     GTH Potential information for                                    GTH-PBE-q4

       Description:                       Goedecker-Teter-Hutter pseudopotential
                                           Goedecker et al., PRB 54, 1703 (1996)
                                          Hartwigsen et al., PRB 58, 3641 (1998)
                                                      Krack, TCA 114, 145 (2005)

       Gaussian exponent of the core charge distribution:               4.364419
       Electronic configuration (s p d ...):                               2   2

       Parameters of the local part of the GTH pseudopotential:

                          rloc        C1          C2          C3          C4
                        0.338471   -8.803674    1.339211

       Parameters of the non-local part of the GTH pseudopotential:

                   l      r(l)      h(i,j,l)

                   0    0.302576    9.622487
                   1    0.291507


 MOLECULE KIND INFORMATION


 All atoms are their own molecule, skipping detailed information


 TOTAL NUMBERS AND MAXIMUM NUMBERS

  Total number of            - Atomic kinds:                                   2
                             - Atoms:                                         26
                             - Shell sets:                                    26
                             - Shells:                                       118
                             - Primitive Cartesian functions:                168
                             - Cartesian basis functions:                    268
                             - Spherical basis functions:                    254

  Maximum angular momentum of- Orbital basis functions:                        2
                             - Local part of the GTH pseudopotential:          2
                             - Non-local part of the GTH pseudopotential:      0


 MODULE QUICKSTEP: ATOMIC COORDINATES IN ANGSTROM

   Atom Kind Element         X             Y             Z       Z(eff)     Mass
      1    1 H     1      4.998191      6.306055      5.775000   1.0000   1.0079
      2    1 H     1      4.998191      8.703945      5.775000   1.0000   1.0079
      3    1 H     1     14.191809      6.306055      5.775000   1.0000   1.0079
      4    1 H     1     14.191809      8.703945      5.775000   1.0000   1.0079
      5    2 C     6      5.959983      6.825823      5.775000   4.0000  12.0107
      6    2 C     6      5.959983      8.184177      5.775000   4.0000  12.0107
      7    2 C     6     13.230017      6.825823      5.775000   4.0000  12.0107
      8    2 C     6     13.230017      8.184177      5.775000   4.0000  12.0107
      9    2 C     6      7.154329      6.091353      5.775000   4.0000  12.0107
     10    2 C     6      7.154329      8.918647      5.775000   4.0000  12.0107
     11    2 C     6      8.371477      6.795577      5.775000   4.0000  12.0107
     12    2 C     6      8.371477      8.214423      5.775000   4.0000  12.0107
     13    2 C     6      9.595000      6.082393      5.775000   4.0000  12.0107
     14    2 C     6      9.595000      8.927607      5.775000   4.0000  12.0107
     15    2 C     6     10.818523      6.795577      5.775000   4.0000  12.0107
     16    2 C     6     10.818523      8.214423      5.775000   4.0000  12.0107
     17    2 C     6     12.035671      6.091353      5.775000   4.0000  12.0107
     18    2 C     6     12.035671      8.918647      5.775000   4.0000  12.0107
     19    1 H     1      7.154329      4.998103      5.775000   1.0000   1.0079
     20    1 H     1      9.595000      5.309348      6.548044   1.0000   1.0079
     21    1 H     1      9.595000      5.309348      5.001956   1.0000   1.0079
     22    1 H     1     12.035671      4.998103      5.775000   1.0000   1.0079
     23    1 H     1      7.154329     10.011897      5.775000   1.0000   1.0079
     24    1 H     1      9.595000      9.700652      6.548044   1.0000   1.0079
     25    1 H     1      9.595000      9.700652      5.001956   1.0000   1.0079
     26    1 H     1     12.035671     10.011897      5.775000   1.0000   1.0079



 SCF PARAMETERS         Density guess:                                   RESTART
                        --------------------------------------------------------
                        max_scf:                                             300
                        max_scf_history:                                       0
                        max_diis:                                              4
                        --------------------------------------------------------
                        eps_scf:                                        1.00E-07
                        eps_scf_history:                                0.00E+00
                        eps_diis:                                       1.00E-01
                        eps_eigval:                                     1.00E-05
                        --------------------------------------------------------
                        level_shift [a.u.]:                             0.000000
                        SCF update method:                                MIXING
                        added MOs                                       100    0
                        --------------------------------------------------------
                        Mixing method:                            BROYDEN_MIXING
                                                charge density mixing in g-space
                        --------------------------------------------------------
                        No outer SCF

 PW_GRID| Information for grid number                                          1
 PW_GRID| Grid distributed over                                    16 processors
 PW_GRID| Real space group dimensions                                    16    1
 PW_GRID| the grid is blocked:                                                NO
 PW_GRID| Cutoff [a.u.]                                                    300.0
 PW_GRID| spherical cutoff:                                                   NO
 PW_GRID|   Bounds   1           -144     143                Points:         288
 PW_GRID|   Bounds   2           -112     112                Points:         225
 PW_GRID|   Bounds   3            -90      89                Points:         180
 PW_GRID| Volume element (a.u.^3)  0.1925E-02     Volume (a.u.^3)     22450.9260
 PW_GRID| Grid span                                                    FULLSPACE
 PW_GRID|   Distribution                         Average         Max         Min
 PW_GRID|   G-Vectors                           729000.0      729216      728928
 PW_GRID|   G-Rays                                2531.2        2532        2531
 PW_GRID|   Real Space Points                   729000.0      729000      729000

 PW_GRID| Information for grid number                                          2
 PW_GRID| Number of the reference grid                                         1
 PW_GRID| Grid distributed over                                    16 processors
 PW_GRID| Real space group dimensions                                    16    1
 PW_GRID| the grid is blocked:                                                NO
 PW_GRID| Cutoff [a.u.]                                                    100.0
 PW_GRID| spherical cutoff:                                                   NO
 PW_GRID|   Bounds   1            -90      89                Points:         180
 PW_GRID|   Bounds   2            -64      63                Points:         128
 PW_GRID|   Bounds   3            -50      49                Points:         100
 PW_GRID| Volume element (a.u.^3)  0.9744E-02     Volume (a.u.^3)     22450.9260
 PW_GRID| Grid span                                                    FULLSPACE
 PW_GRID|   Distribution                         Average         Max         Min
 PW_GRID|   G-Vectors                           144000.0      144720      143280
 PW_GRID|   G-Rays                                 800.0         804         796
 PW_GRID|   Real Space Points                   144000.0      153600      140800

 PW_GRID| Information for grid number                                          3
 PW_GRID| Number of the reference grid                                         1
 PW_GRID| Grid distributed over                                    16 processors
 PW_GRID| Real space group dimensions                                    16    1
 PW_GRID| the grid is blocked:                                                NO
 PW_GRID| Cutoff [a.u.]                                                     33.3
 PW_GRID| spherical cutoff:                                                   NO
 PW_GRID|   Bounds   1            -48      47                Points:          96
 PW_GRID|   Bounds   2            -37      37                Points:          75
 PW_GRID|   Bounds   3            -30      29                Points:          60
 PW_GRID| Volume element (a.u.^3)  0.5197E-01     Volume (a.u.^3)     22450.9260
 PW_GRID| Grid span                                                    FULLSPACE
 PW_GRID|   Distribution                         Average         Max         Min
 PW_GRID|   G-Vectors                            27000.0       27264       26688
 PW_GRID|   G-Rays                                 281.2         284         278
 PW_GRID|   Real Space Points                    27000.0       27000       27000

 PW_GRID| Information for grid number                                          4
 PW_GRID| Number of the reference grid                                         1
 PW_GRID| Grid distributed over                                    16 processors
 PW_GRID| Real space group dimensions                                    16    1
 PW_GRID| the grid is blocked:                                                NO
 PW_GRID| Cutoff [a.u.]                                                     11.1
 PW_GRID| spherical cutoff:                                                   NO
 PW_GRID|   Bounds   1            -30      29                Points:          60
 PW_GRID|   Bounds   2            -22      22                Points:          45
 PW_GRID|   Bounds   3            -18      17                Points:          36
 PW_GRID| Volume element (a.u.^3)  0.2310         Volume (a.u.^3)     22450.9260
 PW_GRID| Grid span                                                    FULLSPACE
 PW_GRID|   Distribution                         Average         Max         Min
 PW_GRID|   G-Vectors                             6075.0        6240        5940
 PW_GRID|   G-Rays                                 101.2         104          99
 PW_GRID|   Real Space Points                     6075.0        6480        4860

 POISSON| Solver                                             MULTIPOLE (Bloechl)
 POISSON| Periodicity                                                       NONE

 RS_GRID| Information for grid number                                          1
 RS_GRID|   Bounds   1           -144     143                Points:         288
 RS_GRID|   Bounds   2           -112     112                Points:         225
 RS_GRID|   Bounds   3            -90      89                Points:         180
 RS_GRID| Real space distribution over                                  4 groups
 RS_GRID| Real space distribution along direction                              1
 RS_GRID| Border size                                                         30
 RS_GRID| Real space distribution over                                  4 groups
 RS_GRID| Real space distribution along direction                              2
 RS_GRID| Border size                                                         30
 RS_GRID|   Distribution                         Average         Max         Min
 RS_GRID|   Planes                                 132.0         132         132
 RS_GRID|   Distribution                         Average         Max         Min
 RS_GRID|   Planes                                 116.2         117         116

 RS_GRID| Information for grid number                                          2
 RS_GRID|   Bounds   1            -90      89                Points:         180
 RS_GRID|   Bounds   2            -64      63                Points:         128
 RS_GRID|   Bounds   3            -50      49                Points:         100
 RS_GRID| Real space distribution over                                  4 groups
 RS_GRID| Real space distribution along direction                              1
 RS_GRID| Border size                                                         33
 RS_GRID| Real space distribution over                                  4 groups
 RS_GRID| Real space distribution along direction                              2
 RS_GRID| Border size                                                         33
 RS_GRID|   Distribution                         Average         Max         Min
 RS_GRID|   Planes                                 111.0         111         111
 RS_GRID|   Distribution                         Average         Max         Min
 RS_GRID|   Planes                                  98.0          98          98

 RS_GRID| Information for grid number                                          3
 RS_GRID|   Bounds   1            -48      47                Points:          96
 RS_GRID|   Bounds   2            -37      37                Points:          75
 RS_GRID|   Bounds   3            -30      29                Points:          60
 RS_GRID| Real space fully replicated
 RS_GRID| Group size                                                           1

 RS_GRID| Information for grid number                                          4
 RS_GRID|   Bounds   1            -30      29                Points:          60
 RS_GRID|   Bounds   2            -22      22                Points:          45
 RS_GRID|   Bounds   3            -18      17                Points:          36
 RS_GRID| Real space fully replicated
 RS_GRID| Group size                                                           1

 *** WARNING in emd/rt_bse_linearized.F:131 :: Linearized RT-BSE is under ***
 *** active development. Make sure you understand the method and validate ***
 *** results before using it for production calculations.                 ***


 Extrapolation method: initial_guess

 *** WARNING in qs_initial_guess.F:312 :: User requested to restart the    ***
 *** wavefunction from the file named: rec_4-RESTART.wfn. This file does   ***
 *** not exist. Please check the existence of the file or change properly  ***
 *** the value of the keyword WFN_RESTART_FILE_NAME. Calculation continues ***
 *** using ATOMIC GUESS.                                                   ***


 Atomic guess: The first density matrix is obtained in terms of atomic orbitals
               and electronic configurations assigned to each atomic kind

 Guess for atomic kind: H

 Electronic structure
    Total number of core electrons                                          0.00
    Total number of valence electrons                                       1.00
    Total number of electrons                                               1.00
    Multiplicity                                                   not specified
    S      1.00


 *******************************************************************************
                  Iteration          Convergence                     Energy [au]
 *******************************************************************************
                          1        0.309524E-02                  -0.417828613492
                          2        0.397171E-03                  -0.417845979898
                          3        0.350877E-04                  -0.417846294368
                          4        0.929317E-09                  -0.417846297422

 Energy components [Hartree]           Total Energy ::           -0.417846297422
                                        Band Energy ::           -0.196148543103
                                     Kinetic Energy ::            0.486531132430
                                   Potential Energy ::           -0.904377429852
                                      Virial (-V/T) ::            1.858827461532
                                        Core Energy ::           -0.470733162945
                                          XC Energy ::           -0.242450390891
                                     Coulomb Energy ::            0.295337256414
                       Total Pseudopotential Energy ::           -0.978038883002
                       Local Pseudopotential Energy ::           -0.978038883002
                    Nonlocal Pseudopotential Energy ::            0.000000000000
                                        Confinement ::            0.207745876267

 Orbital energies  State     L     Occupation   Energy[a.u.]          Energy[eV]

                       1     0          1.000      -0.196149           -5.337473


 Total Electron Density at R=0:                                         0.282919

 Guess for atomic kind: C

 Electronic structure
    Total number of core electrons                                          2.00
    Total number of valence electrons                                       4.00
    Total number of electrons                                               6.00
    Multiplicity                                                   not specified
    S   [  2.00] 2.00
    P      2.00


 *******************************************************************************
                  Iteration          Convergence                     Energy [au]
 *******************************************************************************
                          1        0.988758E-01                  -5.245867139855
                          2        0.702567E-01                  -5.249950338066
                          3        0.324324E-03                  -5.254466662830
                          4        0.763974E-05                  -5.254466744799
                          5        0.410505E-05                  -5.254466744830
                          6        0.282419E-05                  -5.254466744837
                          7        0.925356E-08                  -5.254466744843

 Energy components [Hartree]           Total Energy ::           -5.254466744843
                                        Band Energy ::           -1.295684616135
                                     Kinetic Energy ::            3.559613956185
                                   Potential Energy ::           -8.814080701028
                                      Virial (-V/T) ::            2.476133875617
                                        Core Energy ::           -8.257747528207
                                          XC Energy ::           -1.378022926287
                                     Coulomb Energy ::            4.381303709651
                       Total Pseudopotential Energy ::          -11.853169988044
                       Local Pseudopotential Energy ::          -12.322682182621
                    Nonlocal Pseudopotential Energy ::            0.469512194577
                                        Confinement ::            0.358085036523

 Orbital energies  State     L     Occupation   Energy[a.u.]          Energy[eV]

                       1     0          2.000      -0.472377          -12.854028

                       1     1          2.000      -0.175465           -4.774658


 Total Electron Density at R=0:                                         0.011027
 Re-scaling the density matrix to get the right number of electrons
                  # Electrons              Trace(P)               Scaling factor
                           68                68.000                        1.000

 Number of electrons:                                                         68
 Number of occupied orbitals:                                                 34
 Number of molecular orbitals:                                               134

 Number of orbital functions:                                                254
 Number of independent orbital functions:                                    254


 SCF WAVEFUNCTION OPTIMIZATION

  Step     Update method      Time    Convergence         Total energy    Change
  ------------------------------------------------------------------------------
  Decoupling Energy:                                              -0.0001028964
     1 NoMix/Diag. 0.40E+00    0.2     0.94683082       -85.5461484475 -8.55E+01
  Decoupling Energy:                                              -0.0000689357
     2 Broy./Diag. 0.40E+00    0.2     0.20374089       -77.3578232975  8.19E+00
  Decoupling Energy:                                              -0.0000405143
     3 Broy./Diag. 0.40E+00    0.2     0.09923762       -83.6725157958 -6.31E+00
  Decoupling Energy:                                              -0.0000276256
     4 Broy./Diag. 0.40E+00    0.2     0.01010827       -86.2457320253 -2.57E+00
  Decoupling Energy:                                              -0.0000213319
     5 Broy./Diag. 0.40E+00    0.2     0.00437526       -86.5257646250 -2.80E-01
  Decoupling Energy:                                              -0.0000173062
     6 Broy./Diag. 0.40E+00    0.3     0.00417609       -86.5324514051 -6.69E-03
  Decoupling Energy:                                              -0.0000163467
     7 Broy./Diag. 0.40E+00    0.3     0.00310079       -86.5788308365 -4.64E-02
  Decoupling Energy:                                              -0.0000159290
     8 Broy./Diag. 0.40E+00    0.3     0.00246300       -86.6471928521 -6.84E-02
  Decoupling Energy:                                              -0.0000151814
     9 Broy./Diag. 0.40E+00    0.3     0.00117558       -86.6869896240 -3.98E-02
  Decoupling Energy:                                              -0.0000144720
    10 Broy./Diag. 0.40E+00    0.3     0.00110371       -86.6780777441  8.91E-03
  Decoupling Energy:                                              -0.0000139349
    11 Broy./Diag. 0.40E+00    0.3     0.00121573       -86.6733936993  4.68E-03
  Decoupling Energy:                                              -0.0000136838
    12 Broy./Diag. 0.40E+00    0.2     0.00062003       -86.6771422693 -3.75E-03
  Decoupling Energy:                                              -0.0000136099
    13 Broy./Diag. 0.40E+00    0.2     0.00019813       -86.6793725843 -2.23E-03
  Decoupling Energy:                                              -0.0000135424
    14 Broy./Diag. 0.40E+00    0.2     0.00012536       -86.6778765777  1.50E-03
  Decoupling Energy:                                              -0.0000134119
    15 Broy./Diag. 0.40E+00    0.2     0.00013789       -86.6775745274  3.02E-04
  Decoupling Energy:                                              -0.0000132292
    16 Broy./Diag. 0.40E+00    0.2     0.00014016       -86.6781294777 -5.55E-04
  Decoupling Energy:                                              -0.0000130659
    17 Broy./Diag. 0.40E+00    0.3     0.00008877       -86.6779170698  2.12E-04
  Decoupling Energy:                                              -0.0000128978
    18 Broy./Diag. 0.40E+00    0.3     0.00009762       -86.6773616975  5.55E-04
  Decoupling Energy:                                              -0.0000127717
    19 Broy./Diag. 0.40E+00    0.2     0.00012044       -86.6776050355 -2.43E-04
  Decoupling Energy:                                              -0.0000126738
    20 Broy./Diag. 0.40E+00    0.3     0.00008962       -86.6780372178 -4.32E-04
  Decoupling Energy:                                              -0.0000125964
    21 Broy./Diag. 0.40E+00    0.2     0.00006566       -86.6781654882 -1.28E-04
  Decoupling Energy:                                              -0.0000125621
    22 Broy./Diag. 0.40E+00    0.2     0.00003179       -86.6781664109 -9.23E-07
  Decoupling Energy:                                              -0.0000125478
    23 Broy./Diag. 0.40E+00    0.2     0.00001911       -86.6782455249 -7.91E-05
  Decoupling Energy:                                              -0.0000125427
    24 Broy./Diag. 0.40E+00    0.3     0.00001574       -86.6782674508 -2.19E-05
  Decoupling Energy:                                              -0.0000125380
    25 Broy./Diag. 0.40E+00    0.3     0.00000823       -86.6782002467  6.72E-05
  Decoupling Energy:                                              -0.0000125321
    26 Broy./Diag. 0.40E+00    0.2     0.00000686       -86.6781639841  3.63E-05
  Decoupling Energy:                                              -0.0000125231
    27 Broy./Diag. 0.40E+00    0.3     0.00000977       -86.6781776310 -1.36E-05
  Decoupling Energy:                                              -0.0000125177
    28 Broy./Diag. 0.40E+00    0.3     0.00000645       -86.6781916871 -1.41E-05
  Decoupling Energy:                                              -0.0000125128
    29 Broy./Diag. 0.40E+00    0.3     0.00000464       -86.6781852409  6.45E-06
  Decoupling Energy:                                              -0.0000125082
    30 Broy./Diag. 0.40E+00    0.3     0.00000278       -86.6781947287 -9.49E-06
  Decoupling Energy:                                              -0.0000125047
    31 Broy./Diag. 0.40E+00    0.2     0.00000271       -86.6782117376 -1.70E-05
  Decoupling Energy:                                              -0.0000125017
    32 Broy./Diag. 0.40E+00    0.2     0.00000288       -86.6782135870 -1.85E-06
  Decoupling Energy:                                              -0.0000124993
    33 Broy./Diag. 0.40E+00    0.2     0.00000234       -86.6782093112  4.28E-06
  Decoupling Energy:                                              -0.0000124982
    34 Broy./Diag. 0.40E+00    0.3     0.00000106       -86.6782105306 -1.22E-06
  Decoupling Energy:                                              -0.0000124974
    35 Broy./Diag. 0.40E+00    0.2     0.00000097       -86.6782127838 -2.25E-06
  Decoupling Energy:                                              -0.0000124968
    36 Broy./Diag. 0.40E+00    0.2     0.00000124       -86.6782102356  2.55E-06
  Decoupling Energy:                                              -0.0000124965
    37 Broy./Diag. 0.40E+00    0.2     0.00000065       -86.6782078382  2.40E-06
  Decoupling Energy:                                              -0.0000124963
    38 Broy./Diag. 0.40E+00    0.3     0.00000070       -86.6782093167 -1.48E-06
  Decoupling Energy:                                              -0.0000124960
    39 Broy./Diag. 0.40E+00    0.2     0.00000038       -86.6782109530 -1.64E-06
  Decoupling Energy:                                              -0.0000124958
    40 Broy./Diag. 0.40E+00    0.3     0.00000017       -86.6782108092  1.44E-07
  Decoupling Energy:                                              -0.0000124954
    41 Broy./Diag. 0.40E+00    0.2     0.00000030       -86.6782108843 -7.51E-08
  Decoupling Energy:                                              -0.0000124951
    42 Broy./Diag. 0.40E+00    0.2     0.00000028       -86.6782116726 -7.88E-07
  Decoupling Energy:                                              -0.0000124949
    43 Broy./Diag. 0.40E+00    0.3     0.00000013       -86.6782119861 -3.14E-07
  Decoupling Energy:                                              -0.0000124948
    44 Broy./Diag. 0.40E+00    0.3     0.00000011       -86.6782116423  3.44E-07
  Decoupling Energy:                                              -0.0000124947
    45 Broy./Diag. 0.40E+00    0.3     0.00000010       -86.6782116469 -4.55E-09

  *** SCF run converged in    45 steps ***


  Electronic density on regular grids:        -68.0000000000       -0.0000000000
  Core density on regular grids:               68.0000000000       -0.0000000000
  Total charge density on r-space grids:       -0.0000000000
  Total charge density g-space grids:          -0.0000000000

  Overlap energy of the core charge distribution:               0.00000668959843
  Self energy of the core charge distribution:               -203.61579848114565
  Core Hamiltonian energy:                                     65.05032137661033
  Hartree energy:                                              80.68564233586670
  Exchange-correlation energy:                                -28.79838356780152

  Total energy:                                               -86.67821164687172

 !-----------------------------------------------------------------------------!
                     Mulliken Population Analysis

 #  Atom  Element  Kind  Atomic population                           Net charge
       1     H        1          0.761529                              0.238471
       2     H        1          0.761529                              0.238471
       3     H        1          0.761529                              0.238471
       4     H        1          0.761529                              0.238471
       5     C        2          4.249033                             -0.249033
       6     C        2          4.249033                             -0.249033
       7     C        2          4.249033                             -0.249033
       8     C        2          4.249033                             -0.249033
       9     C        2          4.191479                             -0.191479
      10     C        2          4.191479                             -0.191479
      11     C        2          4.019476                             -0.019476
      12     C        2          4.019476                             -0.019476
      13     C        2          4.598897                             -0.598897
      14     C        2          4.598897                             -0.598897
      15     C        2          4.019476                             -0.019476
      16     C        2          4.019476                             -0.019476
      17     C        2          4.191479                             -0.191479
      18     C        2          4.191479                             -0.191479
      19     H        1          0.781922                              0.218078
      20     H        1          0.697113                              0.302887
      21     H        1          0.697113                              0.302887
      22     H        1          0.781922                              0.218078
      23     H        1          0.781922                              0.218078
      24     H        1          0.697113                              0.302887
      25     H        1          0.697113                              0.302887
      26     H        1          0.781922                              0.218078
 # Total charge                             68.000000                 -0.000000

 !-----------------------------------------------------------------------------!

 !-----------------------------------------------------------------------------!
                           Hirshfeld Charges

  #Atom  Element  Kind  Ref Charge     Population                    Net charge
      1       H      1       1.000          0.551                         0.449
      2       H      1       1.000          0.551                         0.449
      3       H      1       1.000          0.551                         0.449
      4       H      1       1.000          0.551                         0.449
      5       C      2       4.000          4.454                        -0.454
      6       C      2       4.000          4.454                        -0.454
      7       C      2       4.000          4.454                        -0.454
      8       C      2       4.000          4.454                        -0.454
      9       C      2       4.000          4.465                        -0.465
     10       C      2       4.000          4.465                        -0.465
     11       C      2       4.000          4.019                        -0.019
     12       C      2       4.000          4.019                        -0.019
     13       C      2       4.000          4.794                        -0.794
     14       C      2       4.000          4.794                        -0.794
     15       C      2       4.000          4.019                        -0.019
     16       C      2       4.000          4.019                        -0.019
     17       C      2       4.000          4.465                        -0.465
     18       C      2       4.000          4.465                        -0.465
     19       H      1       1.000          0.549                         0.451
     20       H      1       1.000          0.557                         0.443
     21       H      1       1.000          0.557                         0.443
     22       H      1       1.000          0.549                         0.451
     23       H      1       1.000          0.549                         0.451
     24       H      1       1.000          0.557                         0.443
     25       H      1       1.000          0.557                         0.443
     26       H      1       1.000          0.549                         0.451

  Total Charge                                                            0.034
 !-----------------------------------------------------------------------------!
  
 -------------------------------------------------------------------------------
 -                                                                             -
 -                          BANDSTRUCTURE CALCULATION                          -
 -                                                                             -
 -------------------------------------------------------------------------------
  
 Number of occupied molecular orbitals (MOs) = Number of occupied bands       34
 Number of unoccupied (= virtual) MOs = Number of unoccupied bands           220
 Number of Gaussian basis functions for MOs                                  254
  
 -------------------------------------------------------------------------------
 -                                                                             -
 -                                GW CALCULATION                               -
 -                                                                             -
 -------------------------------------------------------------------------------
  
 Input: Number of time/freq. points                                           30
 Input: ω_max for fitting Σ(iω) (eV)                                        10.0
 Input: Filter threshold for sparse tensor operations                    1.0E-10
 Input: Apply Hedin shift                                                      F
 Detected: Available memory per MPI process                              39.9 GB
 
 Input: RI-RS Tikhonov regularization                                   1.00E-08
 Input: AO grid hard cutoff radius                                        7.00 Å
 Input: MPI ranks per atom in Z_lP solve                                      -1
 Input: Keep sparsity in χ/G/W panels                                          T
 Input: GW flavour                                                          G0W0
 
 Input: RI-RS grid optimization activated                                      T
 Input: Element: H, number of points per atom:                                27
 Input: Element: C, number of points per atom:                                67
 Input: Cutoff radius for atomic clusters                                  3.0 Å
 Input: Maximum grid optimization iterations                                 200
 
 Cutoff radius for the truncated Coulomb operator in RI metric:            7.0 Å
 Regularization parameter of RI                                          0.0E+00
 Regularization parameter of minimax grids                               1.0E-06
  
 Number of auxiliary Gaussian basis functions for χ, ε, W                    480
  Decoupling Energy:                                              -0.0000124944
 
 SCF direct band gap (eV)                                                   3.63
 Max. SCF eigval diff. (eV)                                               244.79
 E-Range for minimax grid                                                  67.51
 Number of Padé parameters for analytic continuation:                         16
 
 RI-RS basis radii (Å):
     Kind  Elem     r_AO (Å)     r_RI (Å)
        1    H        11.3560        5.9118
        2    C         9.5975        5.7974
 
 Started RI-RS grid optimization
 RI-RS grid optimization completed, execution time:                       40.0 s
 Normalized 3C error:                                                    1.3E-06
 Maximum absolute 3C error:                                              1.1E-02
 Total grid points used for RI-RS:                                          1262
 
 RI-RS grid row-blocks of Φ_μ(r_l)                                            54
 RI-RS grid points per block (max)                                            32
 
 Percentage of non-zero matrix elements in Φ_μ(r_l)                      98.04 %
 
 RI-RS memory estimate per MPI process:
   Available memory per process (system)                                48.23 GB
   Required for Z_lP (dense upper bound; actual is sparser)              0.00 GB
   Required for χ, W, Σ panels (peak per panel step)                     0.00 GB
   Required for Z_lP solve peak (D_local+φ, worst-case atom)             0.02 GB
   Worst-case local-grid number of grid points:                             1262
   Worst-case memory D_local:                                            0.01 GB
 
 Started computing Z_lP
 Per-kind maximum RI-RS sphere cutoff (Å):
   Kind   cutoff (Å)
     H        12.9118
     C        12.7974
 
 Computed Z_lP (MPI rank 0) for atom          1 /  2,    Execution time    0.0 s
 Computed Z_lP (MPI rank 0) for atom          2 /  2,    Execution time    0.0 s
 Computed Z_lP (all MPI ranks) for all atoms,            Execution time    0.1 s

 Memory per MPI process after computing Z_lP:
 Available memory per MPI process                               48.2 GB
 Used memory per MPI process                                     1.3 GB
 Number of batches for χ, Σ matrices                                           1
 
 Percentage of non-zero matrix elements in Z_lP                         100.00 %
 Percentage of non-zero matrix elements in G_ll', χ_ll', W_ll'          100.00 %
 Percentage of non-zero matrix elements in χ_PQ for time point 1        100.00 %
 
 Computed χ(iτ,k=0) for time point            1 / 30,    Execution time    0.0 s
 Computed χ(iτ,k=0) for time point            2 / 30,    Execution time    0.0 s
 Computed χ(iτ,k=0) for time point            3 / 30,    Execution time    0.0 s
 Computed χ(iτ,k=0) for time point            4 / 30,    Execution time    0.0 s
 Computed χ(iτ,k=0) for time point            5 / 30,    Execution time    0.0 s
 Computed χ(iτ,k=0) for time point            6 / 30,    Execution time    0.0 s
 Computed χ(iτ,k=0) for time point            7 / 30,    Execution time    0.0 s
 Computed χ(iτ,k=0) for time point            8 / 30,    Execution time    0.0 s
 Computed χ(iτ,k=0) for time point            9 / 30,    Execution time    0.0 s
 Computed χ(iτ,k=0) for time point           10 / 30,    Execution time    0.0 s
 Computed χ(iτ,k=0) for time point           11 / 30,    Execution time    0.0 s
 Computed χ(iτ,k=0) for time point           12 / 30,    Execution time    0.0 s
 Computed χ(iτ,k=0) for time point           13 / 30,    Execution time    0.0 s
 Computed χ(iτ,k=0) for time point           14 / 30,    Execution time    0.0 s
 Computed χ(iτ,k=0) for time point           15 / 30,    Execution time    0.0 s
 Computed χ(iτ,k=0) for time point           16 / 30,    Execution time    0.0 s
 Computed χ(iτ,k=0) for time point           17 / 30,    Execution time    0.0 s
 Computed χ(iτ,k=0) for time point           18 / 30,    Execution time    0.0 s
 Computed χ(iτ,k=0) for time point           19 / 30,    Execution time    0.0 s
 Computed χ(iτ,k=0) for time point           20 / 30,    Execution time    0.0 s
 Computed χ(iτ,k=0) for time point           21 / 30,    Execution time    0.0 s
 Computed χ(iτ,k=0) for time point           22 / 30,    Execution time    0.0 s
 Computed χ(iτ,k=0) for time point           23 / 30,    Execution time    0.0 s
 Computed χ(iτ,k=0) for time point           24 / 30,    Execution time    0.0 s
 Computed χ(iτ,k=0) for time point           25 / 30,    Execution time    0.0 s
 Computed χ(iτ,k=0) for time point           26 / 30,    Execution time    0.0 s
 Computed χ(iτ,k=0) for time point           27 / 30,    Execution time    0.0 s
 Computed χ(iτ,k=0) for time point           28 / 30,    Execution time    0.0 s
 Computed χ(iτ,k=0) for time point           29 / 30,    Execution time    0.0 s
 Computed χ(iτ,k=0) for time point           30 / 30,    Execution time    0.0 s
 
 Computed W(iτ),                                         Execution time    0.4 s
 Computed W(0),                                          Execution time    0.0 s
 
 Computed Σ^x(k=0),                                      Execution time    0.0 s
 
 Computed Σ^c(iτ) for time point              1 / 30,    Execution time    0.0 s
 Computed Σ^c(iτ) for time point              2 / 30,    Execution time    0.0 s
 Computed Σ^c(iτ) for time point              3 / 30,    Execution time    0.0 s
 Computed Σ^c(iτ) for time point              4 / 30,    Execution time    0.0 s
 Computed Σ^c(iτ) for time point              5 / 30,    Execution time    0.0 s
 Computed Σ^c(iτ) for time point              6 / 30,    Execution time    0.0 s
 Computed Σ^c(iτ) for time point              7 / 30,    Execution time    0.0 s
 Computed Σ^c(iτ) for time point              8 / 30,    Execution time    0.0 s
 Computed Σ^c(iτ) for time point              9 / 30,    Execution time    0.0 s
 Computed Σ^c(iτ) for time point             10 / 30,    Execution time    0.0 s
 Computed Σ^c(iτ) for time point             11 / 30,    Execution time    0.0 s
 Computed Σ^c(iτ) for time point             12 / 30,    Execution time    0.0 s
 Computed Σ^c(iτ) for time point             13 / 30,    Execution time    0.0 s
 Computed Σ^c(iτ) for time point             14 / 30,    Execution time    0.0 s
 Computed Σ^c(iτ) for time point             15 / 30,    Execution time    0.0 s
 Computed Σ^c(iτ) for time point             16 / 30,    Execution time    0.0 s
 Computed Σ^c(iτ) for time point             17 / 30,    Execution time    0.0 s
 Computed Σ^c(iτ) for time point             18 / 30,    Execution time    0.0 s
 Computed Σ^c(iτ) for time point             19 / 30,    Execution time    0.0 s
 Computed Σ^c(iτ) for time point             20 / 30,    Execution time    0.0 s
 Computed Σ^c(iτ) for time point             21 / 30,    Execution time    0.0 s
 Computed Σ^c(iτ) for time point             22 / 30,    Execution time    0.0 s
 Computed Σ^c(iτ) for time point             23 / 30,    Execution time    0.0 s
 Computed Σ^c(iτ) for time point             24 / 30,    Execution time    0.0 s
 Computed Σ^c(iτ) for time point             25 / 30,    Execution time    0.0 s
 Computed Σ^c(iτ) for time point             26 / 30,    Execution time    0.0 s
 Computed Σ^c(iτ) for time point             27 / 30,    Execution time    0.0 s
 Computed Σ^c(iτ) for time point             28 / 30,    Execution time    0.0 s
 Computed Σ^c(iτ) for time point             29 / 30,    Execution time    0.0 s
 Computed Σ^c(iτ) for time point             30 / 30,    Execution time    0.0 s
 
 SCF valence band maximum (eV):                                           -5.339
 SCF conduction band minimum (eV):                                        -1.713
 SCF indirect band gap (eV):                                               3.626
 SCF direct band gap (eV):                                                 3.626
 
 G0W0 valence band maximum (eV):                                          -7.106
 G0W0 conduction band minimum (eV):                                        0.831
 G0W0 indirect band gap (eV):                                              7.937
 G0W0 direct band gap (eV):                                                7.937
 
 Hartree-Fock with SCF orbitals valence band maximum (eV):                -7.772
 Hartree-Fock with SCF orbitals conduction band minimum (eV)               2.168
 Hartree-Fock with SCF orbitals indirect band gap (eV):                    9.940
 Hartree-Fock with SCF orbitals direct band gap (eV):                      9.940

 ENERGY| Total FORCE_EVAL ( QS ) energy [hartree]            -86.678211646871716

 *** HINT in emd/rt_bse_linearized.F:440 :: ENFORCE_MAX_DT enabled. ***
 *** Resetting TIMESTEP to          66.0720 as and STEPS to 3027.   ***

 
 /-----------------------------------------------------------------------------\
 |                                                                             |
 |              Linearized Real Time Bethe-Salpeter Propagation                |
 |                                                                             |
 \-----------------------------------------------------------------------------/
 
 Apply delta pulse                                                             T

 Use Tamm-Dancoff                                                              T
 TDA first-peak shift active                                                   F

 Estimated maximum timestep within stability region [as]:                66.0818
 Applied timestep [as]:                                                  66.0720
 Number of propagation steps:                                               3027
 Total propagation time [as]:                                        200000.0000
 Estimated FFT frequency resolution without interpolation [eV]:         0.020678
 Nyquist frequency [eV]:                                               31.296663
 Estimated maximum oscillation frequency (gap-based) [eV]:             28.172738
 GW flavor for computing GW eigenvalues used in RT-BSE:                     G0W0
 Active-window occupied energy cutoff [eV]:                               10.000
 Active-window virtual energy cutoff [eV]:                                10.000
 First active occupied MO index:                                              10
 Last active virtual MO index:                                                98
 Number of active MOs:                                                        89
 Spin 1 first active MO, E - E_HOMO (KS) [eV]:                            -9.754
 Spin 1 last active MO, E - E_LUMO (KS) [eV]:                              9.749
 Spin 1 first active MO, E - E_HOMO (QP) [eV]:                           -10.190
 Spin 1 last active MO, E - E_LUMO (QP) [eV]:                              9.527
 Precomputed RT-BSE RI-RS V_aux kernel,                  Execution time    0.0 s
 
 W0CUT| Cutoff radius, negative = off [angstrom]                         50.0000
 W0CUT| Retained block fraction                                         1.000000
 W0CUT| Retained Frobenius norm                                   4.04447665E+05
 Precomputed RT-BSE RI-RS W0_grid kernel,                Execution time    0.0 s
 
 RTBSE| Applying delta pulse
 RTBSE| Delta pulse elements (a.u.) :   -0.0000E+000  -0.1000E-002  -0.0000E+000
 RTBSE| Metric difference after delta kick                       0.18690305E-002
 RTBSE| Estimated runtime for propagation [s]                            190.882
 RTBSE|
 RTBSE| Simulation step   Step time [s]                          Electron number
 RTBSE|               0           0.063                               0.500E+002
 RTBSE|               1           0.062                               0.500E+002
 RTBSE|               2           0.063                               0.500E+002
 RTBSE|               3           0.062                               0.500E+002
 RTBSE|               4           0.062                               0.500E+002
 RTBSE|               5           0.062                               0.500E+002
 RTBSE|               6           0.062                               0.500E+002
 RTBSE|               7           0.062                               0.500E+002
 RTBSE|               8           0.064                               0.500E+002
 RTBSE|               9           0.062                               0.500E+002
 RTBSE|              10           0.062                               0.500E+002
 RTBSE|              11           0.062                               0.500E+002
 RTBSE|              12           0.062                               0.500E+002
 RTBSE|              13           0.062                               0.500E+002
 RTBSE|              14           0.062                               0.500E+002
 RTBSE|              15           0.064                               0.500E+002
 RTBSE|              16           0.062                               0.500E+002
 RTBSE|              17           0.062                               0.500E+002
 RTBSE|              18           0.062                               0.500E+002
 RTBSE|              19           0.062                               0.500E+002
 RTBSE|              20           0.062                               0.500E+002
 RTBSE|              21           0.062                               0.500E+002
 RTBSE|              22           0.062                               0.500E+002
 RTBSE|              23           0.062                               0.500E+002
 RTBSE|              24           0.062                               0.500E+002
 RTBSE|              25           0.062                               0.500E+002
 RTBSE|              26           0.062                               0.500E+002
 RTBSE|              27           0.062                               0.500E+002
 RTBSE|              28           0.062                               0.500E+002
 RTBSE|              29           0.062                               0.500E+002
 RTBSE|              30           0.062                               0.500E+002
 RTBSE|              31           0.062                               0.500E+002
 RTBSE|              32           0.062                               0.500E+002
 RTBSE|              33           0.062                               0.500E+002
 RTBSE|              34           0.062                               0.500E+002
 RTBSE|              35           0.062                               0.500E+002
 RTBSE|              36           0.062                               0.500E+002
 RTBSE|              37           0.062                               0.500E+002
 RTBSE|              38           0.062                               0.500E+002
 RTBSE|              39           0.062                               0.500E+002
 RTBSE|              40           0.064                               0.500E+002
 RTBSE|              41           0.062                               0.500E+002
 RTBSE|              42           0.062                               0.500E+002
 RTBSE|              43           0.062                               0.500E+002
 RTBSE|              44           0.062                               0.500E+002
 RTBSE|              45           0.063                               0.500E+002
 RTBSE|              46           0.062                               0.500E+002
 RTBSE|              47           0.069                               0.500E+002
 RTBSE|              48           0.063                               0.500E+002
 RTBSE|              49           0.062                               0.500E+002
 RTBSE|              50           0.062                               0.500E+002
 RTBSE|              51           0.062                               0.500E+002
 RTBSE|              52           0.062                               0.500E+002
 RTBSE|              53           0.062                               0.500E+002
 RTBSE|              54           0.062                               0.500E+002
 RTBSE|              55           0.062                               0.500E+002
 RTBSE|              56           0.062                               0.500E+002
 RTBSE|              57           0.062                               0.500E+002
 RTBSE|              58           0.062                               0.500E+002
 RTBSE|              59           0.065                               0.500E+002
 RTBSE|              60           0.062                               0.500E+002
 RTBSE|              61           0.062                               0.500E+002
 RTBSE|              62           0.062                               0.500E+002
 RTBSE|              63           0.062                               0.500E+002
 RTBSE|              64           0.062                               0.500E+002
 RTBSE|              65           0.062                               0.500E+002
 RTBSE|              66           0.062                               0.500E+002
 RTBSE|              67           0.062                               0.500E+002
 RTBSE|              68           0.062                               0.500E+002
 RTBSE|              69           0.062                               0.500E+002
 RTBSE|              70           0.064                               0.500E+002
 RTBSE|              71           0.062                               0.500E+002
 RTBSE|              72           0.062                               0.500E+002
 RTBSE|              73           0.064                               0.500E+002
 RTBSE|              74           0.062                               0.500E+002
 RTBSE|              75           0.062                               0.500E+002
 RTBSE|              76           0.062                               0.500E+002
 RTBSE|              77           0.062                               0.500E+002
 RTBSE|              78           0.065                               0.500E+002
 RTBSE|              79           0.062                               0.500E+002
 RTBSE|              80           0.062                               0.500E+002
 RTBSE|              81           0.062                               0.500E+002
 RTBSE|              82           0.062                               0.500E+002
 RTBSE|              83           0.062                               0.500E+002
 RTBSE|              84           0.062                               0.500E+002
 RTBSE|              85           0.062                               0.500E+002
 RTBSE|              86           0.062                               0.500E+002
 RTBSE|              87           0.062                               0.500E+002
 RTBSE|              88           0.062                               0.500E+002
 RTBSE|              89           0.062                               0.500E+002
 RTBSE|              90           0.062                               0.500E+002
 RTBSE|              91           0.062                               0.500E+002
 RTBSE|              92           0.062                               0.500E+002
 RTBSE|              93           0.062                               0.500E+002
 RTBSE|              94           0.062                               0.500E+002
 RTBSE|              95           0.062                               0.500E+002
 RTBSE|              96           0.063                               0.500E+002
 RTBSE|              97           0.062                               0.500E+002
 RTBSE|              98           0.062                               0.500E+002
 RTBSE|              99           0.062                               0.500E+002
 RTBSE|             100           0.062                               0.500E+002
 RTBSE|             101           0.062                               0.500E+002
 RTBSE|             102           0.062                               0.500E+002
 RTBSE|             103           0.062                               0.500E+002
 RTBSE|             104           0.062                               0.500E+002
 RTBSE|             105           0.064                               0.500E+002
 RTBSE|             106           0.062                               0.500E+002
 RTBSE|             107           0.062                               0.500E+002
 RTBSE|             108           0.062                               0.500E+002
 RTBSE|             109           0.062                               0.500E+002
 RTBSE|             110           0.062                               0.500E+002
 RTBSE|             111           0.062                               0.500E+002
 RTBSE|             112           0.062                               0.500E+002
 RTBSE|             113           0.062                               0.500E+002
 RTBSE|             114           0.062                               0.500E+002
 RTBSE|             115           0.062                               0.500E+002
 RTBSE|             116           0.062                               0.500E+002
 RTBSE|             117           0.062                               0.500E+002
 RTBSE|             118           0.062                               0.500E+002
 RTBSE|             119           0.062                               0.500E+002
 RTBSE|             120           0.062                               0.500E+002
 RTBSE|             121           0.062                               0.500E+002
 RTBSE|             122           0.064                               0.500E+002
 RTBSE|             123           0.062                               0.500E+002
 RTBSE|             124           0.062                               0.500E+002
 RTBSE|             125           0.062                               0.500E+002
 RTBSE|             126           0.062                               0.500E+002
 RTBSE|             127           0.063                               0.500E+002
 RTBSE|             128           0.062                               0.500E+002
 RTBSE|             129           0.062                               0.500E+002
 RTBSE|             130           0.062                               0.500E+002
 RTBSE|             131           0.062                               0.500E+002
 RTBSE|             132           0.062                               0.500E+002
 RTBSE|             133           0.062                               0.500E+002
 RTBSE|             134           0.062                               0.500E+002
 RTBSE|             135           0.067                               0.500E+002
 RTBSE|             136           0.062                               0.500E+002
 RTBSE|             137           0.062                               0.500E+002
 RTBSE|             138           0.063                               0.500E+002
 RTBSE|             139           0.062                               0.500E+002
 RTBSE|             140           0.065                               0.500E+002
 RTBSE|             141           0.062                               0.500E+002
 RTBSE|             142           0.062                               0.500E+002
 RTBSE|             143           0.062                               0.500E+002
 RTBSE|             144           0.062                               0.500E+002
 RTBSE|             145           0.062                               0.500E+002
 RTBSE|             146           0.062                               0.500E+002
 RTBSE|             147           0.132                               0.500E+002
 RTBSE|             148           0.162                               0.500E+002
 RTBSE|             149           0.062                               0.500E+002
 RTBSE|             150           0.062                               0.500E+002
 RTBSE|             151           0.062                               0.500E+002
 RTBSE|             152           0.062                               0.500E+002
 RTBSE|             153           0.062                               0.500E+002
 RTBSE|             154           0.062                               0.500E+002
 RTBSE|             155           0.062                               0.500E+002
 RTBSE|             156           0.062                               0.500E+002
 RTBSE|             157           0.062                               0.500E+002
 RTBSE|             158           0.062                               0.500E+002
 RTBSE|             159           0.062                               0.500E+002
 RTBSE|             160           0.062                               0.500E+002
 RTBSE|             161           0.062                               0.500E+002
 RTBSE|             162           0.062                               0.500E+002
 RTBSE|             163           0.062                               0.500E+002
 RTBSE|             164           0.062                               0.500E+002
 RTBSE|             165           0.062                               0.500E+002
 RTBSE|             166           0.062                               0.500E+002
 RTBSE|             167           0.062                               0.500E+002
 RTBSE|             168           0.063                               0.500E+002
 RTBSE|             169           0.062                               0.500E+002
 RTBSE|             170           0.062                               0.500E+002
 RTBSE|             171           0.062                               0.500E+002
 RTBSE|             172           0.062                               0.500E+002
 RTBSE|             173           0.062                               0.500E+002
 RTBSE|             174           0.062                               0.500E+002
 RTBSE|             175           0.062                               0.500E+002
 RTBSE|             176           0.062                               0.500E+002
 RTBSE|             177           0.063                               0.500E+002
 RTBSE|             178           0.062                               0.500E+002
 RTBSE|             179           0.062                               0.500E+002
 RTBSE|             180           0.062                               0.500E+002
 RTBSE|             181           0.062                               0.500E+002
 RTBSE|             182           0.062                               0.500E+002
 RTBSE|             183           0.062                               0.500E+002
 RTBSE|             184           0.062                               0.500E+002
 RTBSE|             185           0.062                               0.500E+002
 RTBSE|             186           0.062                               0.500E+002
 RTBSE|             187           0.062                               0.500E+002
 RTBSE|             188           0.062                               0.500E+002
 RTBSE|             189           0.062                               0.500E+002
 RTBSE|             190           0.062                               0.500E+002
 RTBSE|             191           0.062                               0.500E+002
 RTBSE|             192           0.062                               0.500E+002
 RTBSE|             193           0.062                               0.500E+002
 RTBSE|             194           0.062                               0.500E+002
 RTBSE|             195           0.062                               0.500E+002
 RTBSE|             196           0.062                               0.500E+002
 RTBSE|             197           0.062                               0.500E+002
 RTBSE|             198           0.062                               0.500E+002
 RTBSE|             199           0.062                               0.500E+002
 RTBSE|             200           0.062                               0.500E+002
 RTBSE|             201           0.064                               0.500E+002
 RTBSE|             202           0.062                               0.500E+002
 RTBSE|             203           0.062                               0.500E+002
 RTBSE|             204           0.070                               0.500E+002
 RTBSE|             205           0.064                               0.500E+002
 RTBSE|             206           0.062                               0.500E+002
 RTBSE|             207           0.062                               0.500E+002
 RTBSE|             208           0.062                               0.500E+002
 RTBSE|             209           0.062                               0.500E+002
 RTBSE|             210           0.062                               0.500E+002
 RTBSE|             211           0.062                               0.500E+002
 RTBSE|             212           0.062                               0.500E+002
 RTBSE|             213           0.062                               0.500E+002
 RTBSE|             214           0.063                               0.500E+002
 RTBSE|             215           0.065                               0.500E+002
 RTBSE|             216           0.062                               0.500E+002
 RTBSE|             217           0.062                               0.500E+002
 RTBSE|             218           0.062                               0.500E+002
 RTBSE|             219           0.062                               0.500E+002
 RTBSE|             220           0.062                               0.500E+002
 RTBSE|             221           0.062                               0.500E+002
 RTBSE|             222           0.062                               0.500E+002
 RTBSE|             223           0.062                               0.500E+002
 RTBSE|             224           0.062                               0.500E+002
 RTBSE|             225           0.062                               0.500E+002
 RTBSE|             226           0.062                               0.500E+002
 RTBSE|             227           0.062                               0.500E+002
 RTBSE|             228           0.062                               0.500E+002
 RTBSE|             229           0.062                               0.500E+002
 RTBSE|             230           0.064                               0.500E+002
 RTBSE|             231           0.062                               0.500E+002
 RTBSE|             232           0.062                               0.500E+002
 RTBSE|             233           0.064                               0.500E+002
 RTBSE|             234           0.062                               0.500E+002
 RTBSE|             235           0.062                               0.500E+002
 RTBSE|             236           0.062                               0.500E+002
 RTBSE|             237           0.062                               0.500E+002
 RTBSE|             238           0.065                               0.500E+002
 RTBSE|             239           0.062                               0.500E+002
 RTBSE|             240           0.062                               0.500E+002
 RTBSE|             241           0.062                               0.500E+002
 RTBSE|             242           0.062                               0.500E+002
 RTBSE|             243           0.062                               0.500E+002
 RTBSE|             244           0.062                               0.500E+002
 RTBSE|             245           0.062                               0.500E+002
 RTBSE|             246           0.062                               0.500E+002
 RTBSE|             247           0.062                               0.500E+002
 RTBSE|             248           0.062                               0.500E+002
 RTBSE|             249           0.062                               0.500E+002
 RTBSE|             250           0.062                               0.500E+002
 RTBSE|             251           0.062                               0.500E+002
 RTBSE|             252           0.062                               0.500E+002
 RTBSE|             253           0.062                               0.500E+002
 RTBSE|             254           0.062                               0.500E+002
 RTBSE|             255           0.062                               0.500E+002
 RTBSE|             256           0.062                               0.500E+002
 RTBSE|             257           0.062                               0.500E+002
 RTBSE|             258           0.062                               0.500E+002
 RTBSE|             259           0.062                               0.500E+002
 RTBSE|             260           0.062                               0.500E+002
 RTBSE|             261           0.062                               0.500E+002
 RTBSE|             262           0.062                               0.500E+002
 RTBSE|             263           0.062                               0.500E+002
 RTBSE|             264           0.062                               0.500E+002
 RTBSE|             265           0.062                               0.500E+002
 RTBSE|             266           0.064                               0.500E+002
 RTBSE|             267           0.062                               0.500E+002
 RTBSE|             268           0.062                               0.500E+002
 RTBSE|             269           0.062                               0.500E+002
 RTBSE|             270           0.062                               0.500E+002
 RTBSE|             271           0.062                               0.500E+002
 RTBSE|             272           0.062                               0.500E+002
 RTBSE|             273           0.062                               0.500E+002
 RTBSE|             274           0.062                               0.500E+002
 RTBSE|             275           0.062                               0.500E+002
 RTBSE|             276           0.062                               0.500E+002
 RTBSE|             277           0.062                               0.500E+002
 RTBSE|             278           0.062                               0.500E+002
 RTBSE|             279           0.062                               0.500E+002
 RTBSE|             280           0.062                               0.500E+002
 RTBSE|             281           0.062                               0.500E+002
 RTBSE|             282           0.062                               0.500E+002
 RTBSE|             283           0.062                               0.500E+002
 RTBSE|             284           0.063                               0.500E+002
 RTBSE|             285           0.062                               0.500E+002
 RTBSE|             286           0.062                               0.500E+002
 RTBSE|             287           0.062                               0.500E+002
 RTBSE|             288           0.062                               0.500E+002
 RTBSE|             289           0.062                               0.500E+002
 RTBSE|             290           0.062                               0.500E+002
 RTBSE|             291           0.067                               0.500E+002
 RTBSE|             292           0.062                               0.500E+002
 RTBSE|             293           0.062                               0.500E+002
 RTBSE|             294           0.062                               0.500E+002
 RTBSE|             295           0.062                               0.500E+002
 RTBSE|             296           0.062                               0.500E+002
 RTBSE|             297           0.062                               0.500E+002
 RTBSE|             298           0.063                               0.500E+002
 RTBSE|             299           0.062                               0.500E+002
 RTBSE|             300           0.062                               0.500E+002
 RTBSE|             301           0.062                               0.500E+002
 RTBSE|             302           0.062                               0.500E+002
 RTBSE|             303           0.062                               0.500E+002
 RTBSE|             304           0.062                               0.500E+002
 RTBSE|             305           0.062                               0.500E+002
 RTBSE|             306           0.062                               0.500E+002
 RTBSE|             307           0.062                               0.500E+002
 RTBSE|             308           0.062                               0.500E+002
 RTBSE|             309           0.062                               0.500E+002
 RTBSE|             310           0.062                               0.500E+002
 RTBSE|             311           0.062                               0.500E+002
 RTBSE|             312           0.062                               0.500E+002
 RTBSE|             313           0.062                               0.500E+002
 RTBSE|             314           0.062                               0.500E+002
 RTBSE|             315           0.062                               0.500E+002
 RTBSE|             316           0.062                               0.500E+002
 RTBSE|             317           0.062                               0.500E+002
 RTBSE|             318           0.062                               0.500E+002
 RTBSE|             319           0.062                               0.500E+002
 RTBSE|             320           0.062                               0.500E+002
 RTBSE|             321           0.062                               0.500E+002
 RTBSE|             322           0.062                               0.500E+002
 RTBSE|             323           0.062                               0.500E+002
 RTBSE|             324           0.062                               0.500E+002
 RTBSE|             325           0.062                               0.500E+002
 RTBSE|             326           0.062                               0.500E+002
 RTBSE|             327           0.062                               0.500E+002
 RTBSE|             328           0.062                               0.500E+002
 RTBSE|             329           0.062                               0.500E+002
 RTBSE|             330           0.065                               0.500E+002
 RTBSE|             331           0.063                               0.500E+002
 RTBSE|             332           0.062                               0.500E+002
 RTBSE|             333           0.062                               0.500E+002
 RTBSE|             334           0.062                               0.500E+002
 RTBSE|             335           0.062                               0.500E+002
 RTBSE|             336           0.062                               0.500E+002
 RTBSE|             337           0.062                               0.500E+002
 RTBSE|             338           0.062                               0.500E+002
 RTBSE|             339           0.062                               0.500E+002
 RTBSE|             340           0.062                               0.500E+002
 RTBSE|             341           0.062                               0.500E+002
 RTBSE|             342           0.062                               0.500E+002
 RTBSE|             343           0.062                               0.500E+002
 RTBSE|             344           0.062                               0.500E+002
 RTBSE|             345           0.062                               0.500E+002
 RTBSE|             346           0.062                               0.500E+002
 RTBSE|             347           0.062                               0.500E+002
 RTBSE|             348           0.062                               0.500E+002
 RTBSE|             349           0.062                               0.500E+002
 RTBSE|             350           0.062                               0.500E+002
 RTBSE|             351           0.062                               0.500E+002
 RTBSE|             352           0.062                               0.500E+002
 RTBSE|             353           0.062                               0.500E+002
 RTBSE|             354           0.062                               0.500E+002
 RTBSE|             355           0.062                               0.500E+002
 RTBSE|             356           0.062                               0.500E+002
 RTBSE|             357           0.062                               0.500E+002
 RTBSE|             358           0.062                               0.500E+002
 RTBSE|             359           0.064                               0.500E+002
 RTBSE|             360           0.063                               0.500E+002
 RTBSE|             361           0.062                               0.500E+002
 RTBSE|             362           0.062                               0.500E+002
 RTBSE|             363           0.071                               0.500E+002
 RTBSE|             364           0.063                               0.500E+002
 RTBSE|             365           0.062                               0.500E+002
 RTBSE|             366           0.062                               0.500E+002
 RTBSE|             367           0.062                               0.500E+002
 RTBSE|             368           0.062                               0.500E+002
 RTBSE|             369           0.062                               0.500E+002
 RTBSE|             370           0.062                               0.500E+002
 RTBSE|             371           0.062                               0.500E+002
 RTBSE|             372           0.062                               0.500E+002
 RTBSE|             373           0.063                               0.500E+002
 RTBSE|             374           0.065                               0.500E+002
 RTBSE|             375           0.062                               0.500E+002
 RTBSE|             376           0.062                               0.500E+002
 RTBSE|             377           0.062                               0.500E+002
 RTBSE|             378           0.062                               0.500E+002
 RTBSE|             379           0.062                               0.500E+002
 RTBSE|             380           0.062                               0.500E+002
 RTBSE|             381           0.062                               0.500E+002
 RTBSE|             382           0.062                               0.500E+002
 RTBSE|             383           0.062                               0.500E+002
 RTBSE|             384           0.062                               0.500E+002
 RTBSE|             385           0.062                               0.500E+002
 RTBSE|             386           0.062                               0.500E+002
 RTBSE|             387           0.062                               0.500E+002
 RTBSE|             388           0.062                               0.500E+002
 RTBSE|             389           0.062                               0.500E+002
 RTBSE|             390           0.062                               0.500E+002
 RTBSE|             391           0.062                               0.500E+002
 RTBSE|             392           0.062                               0.500E+002
 RTBSE|             393           0.062                               0.500E+002
 RTBSE|             394           0.062                               0.500E+002
 RTBSE|             395           0.062                               0.500E+002
 RTBSE|             396           0.064                               0.500E+002
 RTBSE|             397           0.062                               0.500E+002
 RTBSE|             398           0.062                               0.500E+002
 RTBSE|             399           0.062                               0.500E+002
 RTBSE|             400           0.062                               0.500E+002
 RTBSE|             401           0.065                               0.500E+002
 RTBSE|             402           0.062                               0.500E+002
 RTBSE|             403           0.062                               0.500E+002
 RTBSE|             404           0.062                               0.500E+002
 RTBSE|             405           0.062                               0.500E+002
 RTBSE|             406           0.062                               0.500E+002
 RTBSE|             407           0.062                               0.500E+002
 RTBSE|             408           0.062                               0.500E+002
 RTBSE|             409           0.062                               0.500E+002
 RTBSE|             410           0.062                               0.500E+002
 RTBSE|             411           0.062                               0.500E+002
 RTBSE|             412           0.062                               0.500E+002
 RTBSE|             413           0.062                               0.500E+002
 RTBSE|             414           0.062                               0.500E+002
 RTBSE|             415           0.062                               0.500E+002
 RTBSE|             416           0.062                               0.500E+002
 RTBSE|             417           0.062                               0.500E+002
 RTBSE|             418           0.062                               0.500E+002
 RTBSE|             419           0.062                               0.500E+002
 RTBSE|             420           0.062                               0.500E+002
 RTBSE|             421           0.062                               0.500E+002
 RTBSE|             422           0.062                               0.500E+002
 RTBSE|             423           0.062                               0.500E+002
 RTBSE|             424           0.062                               0.500E+002
 RTBSE|             425           0.062                               0.500E+002
 RTBSE|             426           0.062                               0.500E+002
 RTBSE|             427           0.062                               0.500E+002
 RTBSE|             428           0.062                               0.500E+002
 RTBSE|             429           0.063                               0.500E+002
 RTBSE|             430           0.062                               0.500E+002
 RTBSE|             431           0.062                               0.500E+002
 RTBSE|             432           0.062                               0.500E+002
 RTBSE|             433           0.062                               0.500E+002
 RTBSE|             434           0.062                               0.500E+002
 RTBSE|             435           0.062                               0.500E+002
 RTBSE|             436           0.062                               0.500E+002
 RTBSE|             437           0.062                               0.500E+002
 RTBSE|             438           0.062                               0.500E+002
 RTBSE|             439           0.062                               0.500E+002
 RTBSE|             440           0.062                               0.500E+002
 RTBSE|             441           0.062                               0.500E+002
 RTBSE|             442           0.063                               0.500E+002
 RTBSE|             443           0.062                               0.500E+002
 RTBSE|             444           0.062                               0.500E+002
 RTBSE|             445           0.062                               0.500E+002
 RTBSE|             446           0.062                               0.500E+002
 RTBSE|             447           0.062                               0.500E+002
 RTBSE|             448           0.062                               0.500E+002
 RTBSE|             449           0.062                               0.500E+002
 RTBSE|             450           0.062                               0.500E+002
 RTBSE|             451           0.067                               0.500E+002
 RTBSE|             452           0.062                               0.500E+002
 RTBSE|             453           0.062                               0.500E+002
 RTBSE|             454           0.062                               0.500E+002
 RTBSE|             455           0.062                               0.500E+002
 RTBSE|             456           0.062                               0.500E+002
 RTBSE|             457           0.062                               0.500E+002
 RTBSE|             458           0.062                               0.500E+002
 RTBSE|             459           0.062                               0.500E+002
 RTBSE|             460           0.062                               0.500E+002
 RTBSE|             461           0.064                               0.500E+002
 RTBSE|             462           0.062                               0.500E+002
 RTBSE|             463           0.062                               0.500E+002
 RTBSE|             464           0.062                               0.500E+002
 RTBSE|             465           0.062                               0.500E+002
 RTBSE|             466           0.062                               0.500E+002
 RTBSE|             467           0.062                               0.500E+002
 RTBSE|             468           0.062                               0.500E+002
 RTBSE|             469           0.062                               0.500E+002
 RTBSE|             470           0.062                               0.500E+002
 RTBSE|             471           0.062                               0.500E+002
 RTBSE|             472           0.062                               0.500E+002
 RTBSE|             473           0.062                               0.500E+002
 RTBSE|             474           0.062                               0.500E+002
 RTBSE|             475           0.062                               0.500E+002
 RTBSE|             476           0.062                               0.500E+002
 RTBSE|             477           0.062                               0.500E+002
 RTBSE|             478           0.062                               0.500E+002
 RTBSE|             479           0.062                               0.500E+002
 RTBSE|             480           0.062                               0.500E+002
 RTBSE|             481           0.062                               0.500E+002
 RTBSE|             482           0.062                               0.500E+002
 RTBSE|             483           0.062                               0.500E+002
 RTBSE|             484           0.062                               0.500E+002
 RTBSE|             485           0.062                               0.500E+002
 RTBSE|             486           0.062                               0.500E+002
 RTBSE|             487           0.062                               0.500E+002
 RTBSE|             488           0.062                               0.500E+002
 RTBSE|             489           0.064                               0.500E+002
 RTBSE|             490           0.062                               0.500E+002
 RTBSE|             491           0.062                               0.500E+002
 RTBSE|             492           0.062                               0.500E+002
 RTBSE|             493           0.062                               0.500E+002
 RTBSE|             494           0.063                               0.500E+002
 RTBSE|             495           0.062                               0.500E+002
 RTBSE|             496           0.062                               0.500E+002
 RTBSE|             497           0.062                               0.500E+002
 RTBSE|             498           0.062                               0.500E+002
 RTBSE|             499           0.062                               0.500E+002
 RTBSE|             500           0.062                               0.500E+002
 RTBSE|             501           0.064                               0.500E+002
 RTBSE|             502           0.062                               0.500E+002
 RTBSE|             503           0.062                               0.500E+002
 RTBSE|             504           0.062                               0.500E+002
 RTBSE|             505           0.062                               0.500E+002
 RTBSE|             506           0.062                               0.500E+002
 RTBSE|             507           0.062                               0.500E+002
 RTBSE|             508           0.062                               0.500E+002
 RTBSE|             509           0.062                               0.500E+002
 RTBSE|             510           0.062                               0.500E+002
 RTBSE|             511           0.062                               0.500E+002
 RTBSE|             512           0.062                               0.500E+002
 RTBSE|             513           0.062                               0.500E+002
 RTBSE|             514           0.062                               0.500E+002
 RTBSE|             515           0.062                               0.500E+002
 RTBSE|             516           0.062                               0.500E+002
 RTBSE|             517           0.062                               0.500E+002
 RTBSE|             518           0.062                               0.500E+002
 RTBSE|             519           0.062                               0.500E+002
 RTBSE|             520           0.063                               0.500E+002
 RTBSE|             521           0.062                               0.500E+002
 RTBSE|             522           0.070                               0.500E+002
 RTBSE|             523           0.062                               0.500E+002
 RTBSE|             524           0.062                               0.500E+002
 RTBSE|             525           0.062                               0.500E+002
 RTBSE|             526           0.063                               0.500E+002
 RTBSE|             527           0.062                               0.500E+002
 RTBSE|             528           0.062                               0.500E+002
 RTBSE|             529           0.062                               0.500E+002
 RTBSE|             530           0.062                               0.500E+002
 RTBSE|             531           0.062                               0.500E+002
 RTBSE|             532           0.063                               0.500E+002
 RTBSE|             533           0.065                               0.500E+002
 RTBSE|             534           0.062                               0.500E+002
 RTBSE|             535           0.062                               0.500E+002
 RTBSE|             536           0.062                               0.500E+002
 RTBSE|             537           0.062                               0.500E+002
 RTBSE|             538           0.062                               0.500E+002
 RTBSE|             539           0.062                               0.500E+002
 RTBSE|             540           0.062                               0.500E+002
 RTBSE|             541           0.062                               0.500E+002
 RTBSE|             542           0.062                               0.500E+002
 RTBSE|             543           0.062                               0.500E+002
 RTBSE|             544           0.062                               0.500E+002
 RTBSE|             545           0.062                               0.500E+002
 RTBSE|             546           0.062                               0.500E+002
 RTBSE|             547           0.062                               0.500E+002
 RTBSE|             548           0.062                               0.500E+002
 RTBSE|             549           0.062                               0.500E+002
 RTBSE|             550           0.062                               0.500E+002
 RTBSE|             551           0.062                               0.500E+002
 RTBSE|             552           0.062                               0.500E+002
 RTBSE|             553           0.062                               0.500E+002
 RTBSE|             554           0.062                               0.500E+002
 RTBSE|             555           0.062                               0.500E+002
 RTBSE|             556           0.062                               0.500E+002
 RTBSE|             557           0.062                               0.500E+002
 RTBSE|             558           0.062                               0.500E+002
 RTBSE|             559           0.064                               0.500E+002
 RTBSE|             560           0.062                               0.500E+002
 RTBSE|             561           0.062                               0.500E+002
 RTBSE|             562           0.062                               0.500E+002
 RTBSE|             563           0.062                               0.500E+002
 RTBSE|             564           0.065                               0.500E+002
 RTBSE|             565           0.062                               0.500E+002
 RTBSE|             566           0.062                               0.500E+002
 RTBSE|             567           0.062                               0.500E+002
 RTBSE|             568           0.062                               0.500E+002
 RTBSE|             569           0.062                               0.500E+002
 RTBSE|             570           0.062                               0.500E+002
 RTBSE|             571           0.062                               0.500E+002
 RTBSE|             572           0.062                               0.500E+002
 RTBSE|             573           0.062                               0.500E+002
 RTBSE|             574           0.062                               0.500E+002
 RTBSE|             575           0.062                               0.500E+002
 RTBSE|             576           0.062                               0.500E+002
 RTBSE|             577           0.062                               0.500E+002
 RTBSE|             578           0.062                               0.500E+002
 RTBSE|             579           0.062                               0.500E+002
 RTBSE|             580           0.062                               0.500E+002
 RTBSE|             581           0.062                               0.500E+002
 RTBSE|             582           0.062                               0.500E+002
 RTBSE|             583           0.062                               0.500E+002
 RTBSE|             584           0.062                               0.500E+002
 RTBSE|             585           0.062                               0.500E+002
 RTBSE|             586           0.062                               0.500E+002
 RTBSE|             587           0.062                               0.500E+002
 RTBSE|             588           0.062                               0.500E+002
 RTBSE|             589           0.062                               0.500E+002
 RTBSE|             590           0.062                               0.500E+002
 RTBSE|             591           0.062                               0.500E+002
 RTBSE|             592           0.063                               0.500E+002
 RTBSE|             593           0.062                               0.500E+002
 RTBSE|             594           0.062                               0.500E+002
 RTBSE|             595           0.062                               0.500E+002
 RTBSE|             596           0.062                               0.500E+002
 RTBSE|             597           0.062                               0.500E+002
 RTBSE|             598           0.063                               0.500E+002
 RTBSE|             599           0.062                               0.500E+002
 RTBSE|             600           0.062                               0.500E+002
 RTBSE|             601           0.062                               0.500E+002
 RTBSE|             602           0.063                               0.500E+002
 RTBSE|             603           0.062                               0.500E+002
 RTBSE|             604           0.062                               0.500E+002
 RTBSE|             605           0.062                               0.500E+002
 RTBSE|             606           0.062                               0.500E+002
 RTBSE|             607           0.062                               0.500E+002
 RTBSE|             608           0.062                               0.500E+002
 RTBSE|             609           0.062                               0.500E+002
 RTBSE|             610           0.067                               0.500E+002
 RTBSE|             611           0.062                               0.500E+002
 RTBSE|             612           0.062                               0.500E+002
 RTBSE|             613           0.062                               0.500E+002
 RTBSE|             614           0.062                               0.500E+002
 RTBSE|             615           0.062                               0.500E+002
 RTBSE|             616           0.062                               0.500E+002
 RTBSE|             617           0.062                               0.500E+002
 RTBSE|             618           0.062                               0.500E+002
 RTBSE|             619           0.062                               0.500E+002
 RTBSE|             620           0.062                               0.500E+002
 RTBSE|             621           0.062                               0.500E+002
 RTBSE|             622           0.062                               0.500E+002
 RTBSE|             623           0.098                               0.500E+002
 RTBSE|             624           0.063                               0.500E+002
 RTBSE|             625           0.062                               0.500E+002
 RTBSE|             626           0.062                               0.500E+002
 RTBSE|             627           0.062                               0.500E+002
 RTBSE|             628           0.062                               0.500E+002
 RTBSE|             629           0.062                               0.500E+002
 RTBSE|             630           0.062                               0.500E+002
 RTBSE|             631           0.062                               0.500E+002
 RTBSE|             632           0.062                               0.500E+002
 RTBSE|             633           0.062                               0.500E+002
 RTBSE|             634           0.062                               0.500E+002
 RTBSE|             635           0.062                               0.500E+002
 RTBSE|             636           0.062                               0.500E+002
 RTBSE|             637           0.062                               0.500E+002
 RTBSE|             638           0.062                               0.500E+002
 RTBSE|             639           0.062                               0.500E+002
 RTBSE|             640           0.062                               0.500E+002
 RTBSE|             641           0.062                               0.500E+002
 RTBSE|             642           0.062                               0.500E+002
 RTBSE|             643           0.062                               0.500E+002
 RTBSE|             644           0.062                               0.500E+002
 RTBSE|             645           0.062                               0.500E+002
 RTBSE|             646           0.062                               0.500E+002
 RTBSE|             647           0.062                               0.500E+002
 RTBSE|             648           0.064                               0.500E+002
 RTBSE|             649           0.062                               0.500E+002
 RTBSE|             650           0.062                               0.500E+002
 RTBSE|             651           0.062                               0.500E+002
 RTBSE|             652           0.062                               0.500E+002
 RTBSE|             653           0.062                               0.500E+002
 RTBSE|             654           0.063                               0.500E+002
 RTBSE|             655           0.062                               0.500E+002
 RTBSE|             656           0.064                               0.500E+002
 RTBSE|             657           0.062                               0.500E+002
 RTBSE|             658           0.062                               0.500E+002
 RTBSE|             659           0.062                               0.500E+002
 RTBSE|             660           0.062                               0.500E+002
 RTBSE|             661           0.062                               0.500E+002
 RTBSE|             662           0.062                               0.500E+002
 RTBSE|             663           0.062                               0.500E+002
 RTBSE|             664           0.062                               0.500E+002
 RTBSE|             665           0.062                               0.500E+002
 RTBSE|             666           0.062                               0.500E+002
 RTBSE|             667           0.062                               0.500E+002
 RTBSE|             668           0.062                               0.500E+002
 RTBSE|             669           0.062                               0.500E+002
 RTBSE|             670           0.062                               0.500E+002
 RTBSE|             671           0.062                               0.500E+002
 RTBSE|             672           0.062                               0.500E+002
 RTBSE|             673           0.062                               0.500E+002
 RTBSE|             674           0.062                               0.500E+002
 RTBSE|             675           0.062                               0.500E+002
 RTBSE|             676           0.062                               0.500E+002
 RTBSE|             677           0.062                               0.500E+002
 RTBSE|             678           0.065                               0.500E+002
 RTBSE|             679           0.062                               0.500E+002
 RTBSE|             680           0.062                               0.500E+002
 RTBSE|             681           0.097                               0.500E+002
 RTBSE|             682           0.062                               0.500E+002
 RTBSE|             683           0.062                               0.500E+002
 RTBSE|             684           0.063                               0.500E+002
 RTBSE|             685           0.062                               0.500E+002
 RTBSE|             686           0.062                               0.500E+002
 RTBSE|             687           0.062                               0.500E+002
 RTBSE|             688           0.062                               0.500E+002
 RTBSE|             689           0.064                               0.500E+002
 RTBSE|             690           0.063                               0.500E+002
 RTBSE|             691           0.063                               0.500E+002
 RTBSE|             692           0.062                               0.500E+002
 RTBSE|             693           0.062                               0.500E+002
 RTBSE|             694           0.062                               0.500E+002
 RTBSE|             695           0.062                               0.500E+002
 RTBSE|             696           0.062                               0.500E+002
 RTBSE|             697           0.062                               0.500E+002
 RTBSE|             698           0.062                               0.500E+002
 RTBSE|             699           0.062                               0.500E+002
 RTBSE|             700           0.062                               0.500E+002
 RTBSE|             701           0.062                               0.500E+002
 RTBSE|             702           0.062                               0.500E+002
 RTBSE|             703           0.062                               0.500E+002
 RTBSE|             704           0.062                               0.500E+002
 RTBSE|             705           0.062                               0.500E+002
 RTBSE|             706           0.062                               0.500E+002
 RTBSE|             707           0.062                               0.500E+002
 RTBSE|             708           0.062                               0.500E+002
 RTBSE|             709           0.062                               0.500E+002
 RTBSE|             710           0.062                               0.500E+002
 RTBSE|             711           0.062                               0.500E+002
 RTBSE|             712           0.062                               0.500E+002
 RTBSE|             713           0.062                               0.500E+002
 RTBSE|             714           0.062                               0.500E+002
 RTBSE|             715           0.062                               0.500E+002
 RTBSE|             716           0.062                               0.500E+002
 RTBSE|             717           0.062                               0.500E+002
 RTBSE|             718           0.062                               0.500E+002
 RTBSE|             719           0.062                               0.500E+002
 RTBSE|             720           0.062                               0.500E+002
 RTBSE|             721           0.064                               0.500E+002
 RTBSE|             722           0.062                               0.500E+002
 RTBSE|             723           0.062                               0.500E+002
 RTBSE|             724           0.062                               0.500E+002
 RTBSE|             725           0.062                               0.500E+002
 RTBSE|             726           0.065                               0.500E+002
 RTBSE|             727           0.062                               0.500E+002
 RTBSE|             728           0.062                               0.500E+002
 RTBSE|             729           0.062                               0.500E+002
 RTBSE|             730           0.062                               0.500E+002
 RTBSE|             731           0.062                               0.500E+002
 RTBSE|             732           0.062                               0.500E+002
 RTBSE|             733           0.062                               0.500E+002
 RTBSE|             734           0.062                               0.500E+002
 RTBSE|             735           0.062                               0.500E+002
 RTBSE|             736           0.081                               0.500E+002
 RTBSE|             737           0.062                               0.500E+002
 RTBSE|             738           0.062                               0.500E+002
 RTBSE|             739           0.062                               0.500E+002
 RTBSE|             740           0.062                               0.500E+002
 RTBSE|             741           0.062                               0.500E+002
 RTBSE|             742           0.062                               0.500E+002
 RTBSE|             743           0.062                               0.500E+002
 RTBSE|             744           0.062                               0.500E+002
 RTBSE|             745           0.062                               0.500E+002
 RTBSE|             746           0.062                               0.500E+002
 RTBSE|             747           0.062                               0.500E+002
 RTBSE|             748           0.062                               0.500E+002
 RTBSE|             749           0.062                               0.500E+002
 RTBSE|             750           0.062                               0.500E+002
 RTBSE|             751           0.062                               0.500E+002
 RTBSE|             752           0.112                               0.500E+002
 RTBSE|             753           0.064                               0.500E+002
 RTBSE|             754           0.062                               0.500E+002
 RTBSE|             755           0.062                               0.500E+002
 RTBSE|             756           0.062                               0.500E+002
 RTBSE|             757           0.062                               0.500E+002
 RTBSE|             758           0.062                               0.500E+002
 RTBSE|             759           0.062                               0.500E+002
 RTBSE|             760           0.063                               0.500E+002
 RTBSE|             761           0.062                               0.500E+002
 RTBSE|             762           0.062                               0.500E+002
 RTBSE|             763           0.062                               0.500E+002
 RTBSE|             764           0.062                               0.500E+002
 RTBSE|             765           0.062                               0.500E+002
 RTBSE|             766           0.064                               0.500E+002
 RTBSE|             767           0.067                               0.500E+002
 RTBSE|             768           0.105                               0.500E+002
 RTBSE|             769           0.062                               0.500E+002
 RTBSE|             770           0.062                               0.500E+002
 RTBSE|             771           0.062                               0.500E+002
 RTBSE|             772           0.062                               0.500E+002
 RTBSE|             773           0.062                               0.500E+002
 RTBSE|             774           0.062                               0.500E+002
 RTBSE|             775           0.062                               0.500E+002
 RTBSE|             776           0.062                               0.500E+002
 RTBSE|             777           0.062                               0.500E+002
 RTBSE|             778           0.062                               0.500E+002
 RTBSE|             779           0.062                               0.500E+002
 RTBSE|             780           0.062                               0.500E+002
 RTBSE|             781           0.062                               0.500E+002
 RTBSE|             782           0.062                               0.500E+002
 RTBSE|             783           0.062                               0.500E+002
 RTBSE|             784           0.105                               0.500E+002
 RTBSE|             785           0.062                               0.500E+002
 RTBSE|             786           0.062                               0.500E+002
 RTBSE|             787           0.062                               0.500E+002
 RTBSE|             788           0.062                               0.500E+002
 RTBSE|             789           0.062                               0.500E+002
 RTBSE|             790           0.062                               0.500E+002
 RTBSE|             791           0.062                               0.500E+002
 RTBSE|             792           0.062                               0.500E+002
 RTBSE|             793           0.062                               0.500E+002
 RTBSE|             794           0.062                               0.500E+002
 RTBSE|             795           0.062                               0.500E+002
 RTBSE|             796           0.062                               0.500E+002
 RTBSE|             797           0.062                               0.500E+002
 RTBSE|             798           0.062                               0.500E+002
 RTBSE|             799           0.065                               0.500E+002
 RTBSE|             800           0.062                               0.500E+002
 RTBSE|             801           0.063                               0.500E+002
 RTBSE|             802           0.062                               0.500E+002
 RTBSE|             803           0.062                               0.500E+002
 RTBSE|             804           0.064                               0.500E+002
 RTBSE|             805           0.062                               0.500E+002
 RTBSE|             806           0.062                               0.500E+002
 RTBSE|             807           0.062                               0.500E+002
 RTBSE|             808           0.062                               0.500E+002
 RTBSE|             809           0.062                               0.500E+002
 RTBSE|             810           0.062                               0.500E+002
 RTBSE|             811           0.062                               0.500E+002
 RTBSE|             812           0.062                               0.500E+002
 RTBSE|             813           0.062                               0.500E+002
 RTBSE|             814           0.062                               0.500E+002
 RTBSE|             815           0.065                               0.500E+002
 RTBSE|             816           0.064                               0.500E+002
 RTBSE|             817           0.062                               0.500E+002
 RTBSE|             818           0.062                               0.500E+002
 RTBSE|             819           0.062                               0.500E+002
 RTBSE|             820           0.062                               0.500E+002
 RTBSE|             821           0.062                               0.500E+002
 RTBSE|             822           0.062                               0.500E+002
 RTBSE|             823           0.062                               0.500E+002
 RTBSE|             824           0.062                               0.500E+002
 RTBSE|             825           0.062                               0.500E+002
 RTBSE|             826           0.062                               0.500E+002
 RTBSE|             827           0.062                               0.500E+002
 RTBSE|             828           0.062                               0.500E+002
 RTBSE|             829           0.062                               0.500E+002
 RTBSE|             830           0.062                               0.500E+002
 RTBSE|             831           0.064                               0.500E+002
 RTBSE|             832           0.062                               0.500E+002
 RTBSE|             833           0.062                               0.500E+002
 RTBSE|             834           0.065                               0.500E+002
 RTBSE|             835           0.062                               0.500E+002
 RTBSE|             836           0.062                               0.500E+002
 RTBSE|             837           0.069                               0.500E+002
 RTBSE|             838           0.063                               0.500E+002
 RTBSE|             839           0.062                               0.500E+002
 RTBSE|             840           0.063                               0.500E+002
 RTBSE|             841           0.062                               0.500E+002
 RTBSE|             842           0.062                               0.500E+002
 RTBSE|             843           0.062                               0.500E+002
 RTBSE|             844           0.062                               0.500E+002
 RTBSE|             845           0.062                               0.500E+002
 RTBSE|             846           0.062                               0.500E+002
 RTBSE|             847           0.129                               0.500E+002
 RTBSE|             848           0.074                               0.500E+002
 RTBSE|             849           0.063                               0.500E+002
 RTBSE|             850           0.062                               0.500E+002
 RTBSE|             851           0.062                               0.500E+002
 RTBSE|             852           0.062                               0.500E+002
 RTBSE|             853           0.062                               0.500E+002
 RTBSE|             854           0.062                               0.500E+002
 RTBSE|             855           0.062                               0.500E+002
 RTBSE|             856           0.062                               0.500E+002
 RTBSE|             857           0.062                               0.500E+002
 RTBSE|             858           0.062                               0.500E+002
 RTBSE|             859           0.062                               0.500E+002
 RTBSE|             860           0.062                               0.500E+002
 RTBSE|             861           0.062                               0.500E+002
 RTBSE|             862           0.062                               0.500E+002
 RTBSE|             863           0.062                               0.500E+002
 RTBSE|             864           0.062                               0.500E+002
 RTBSE|             865           0.062                               0.500E+002
 RTBSE|             866           0.062                               0.500E+002
 RTBSE|             867           0.062                               0.500E+002
 RTBSE|             868           0.062                               0.500E+002
 RTBSE|             869           0.062                               0.500E+002
 RTBSE|             870           0.062                               0.500E+002
 RTBSE|             871           0.062                               0.500E+002
 RTBSE|             872           0.062                               0.500E+002
 RTBSE|             873           0.062                               0.500E+002
 RTBSE|             874           0.062                               0.500E+002
 RTBSE|             875           0.062                               0.500E+002
 RTBSE|             876           0.062                               0.500E+002
 RTBSE|             877           0.062                               0.500E+002
 RTBSE|             878           0.062                               0.500E+002
 RTBSE|             879           0.062                               0.500E+002
 RTBSE|             880           0.064                               0.500E+002
 RTBSE|             881           0.062                               0.500E+002
 RTBSE|             882           0.062                               0.500E+002
 RTBSE|             883           0.062                               0.500E+002
 RTBSE|             884           0.062                               0.500E+002
 RTBSE|             885           0.065                               0.500E+002
 RTBSE|             886           0.062                               0.500E+002
 RTBSE|             887           0.062                               0.500E+002
 RTBSE|             888           0.062                               0.500E+002
 RTBSE|             889           0.063                               0.500E+002
 RTBSE|             890           0.062                               0.500E+002
 RTBSE|             891           0.062                               0.500E+002
 RTBSE|             892           0.062                               0.500E+002
 RTBSE|             893           0.062                               0.500E+002
 RTBSE|             894           0.062                               0.500E+002
 RTBSE|             895           0.062                               0.500E+002
 RTBSE|             896           0.062                               0.500E+002
 RTBSE|             897           0.062                               0.500E+002
 RTBSE|             898           0.062                               0.500E+002
 RTBSE|             899           0.062                               0.500E+002
 RTBSE|             900           0.062                               0.500E+002
 RTBSE|             901           0.062                               0.500E+002
 RTBSE|             902           0.062                               0.500E+002
 RTBSE|             903           0.062                               0.500E+002
 RTBSE|             904           0.062                               0.500E+002
 RTBSE|             905           0.062                               0.500E+002
 RTBSE|             906           0.062                               0.500E+002
 RTBSE|             907           0.062                               0.500E+002
 RTBSE|             908           0.062                               0.500E+002
 RTBSE|             909           0.062                               0.500E+002
 RTBSE|             910           0.062                               0.500E+002
 RTBSE|             911           0.062                               0.500E+002
 RTBSE|             912           0.062                               0.500E+002
 RTBSE|             913           0.063                               0.500E+002
 RTBSE|             914           0.062                               0.500E+002
 RTBSE|             915           0.062                               0.500E+002
 RTBSE|             916           0.063                               0.500E+002
 RTBSE|             917           0.062                               0.500E+002
 RTBSE|             918           0.064                               0.500E+002
 RTBSE|             919           0.062                               0.500E+002
 RTBSE|             920           0.062                               0.500E+002
 RTBSE|             921           0.062                               0.500E+002
 RTBSE|             922           0.062                               0.500E+002
 RTBSE|             923           0.067                               0.500E+002
 RTBSE|             924           0.062                               0.500E+002
 RTBSE|             925           0.062                               0.500E+002
 RTBSE|             926           0.063                               0.500E+002
 RTBSE|             927           0.062                               0.500E+002
 RTBSE|             928           0.062                               0.500E+002
 RTBSE|             929           0.062                               0.500E+002
 RTBSE|             930           0.062                               0.500E+002
 RTBSE|             931           0.062                               0.500E+002
 RTBSE|             932           0.062                               0.500E+002
 RTBSE|             933           0.062                               0.500E+002
 RTBSE|             934           0.062                               0.500E+002
 RTBSE|             935           0.062                               0.500E+002
 RTBSE|             936           0.062                               0.500E+002
 RTBSE|             937           0.062                               0.500E+002
 RTBSE|             938           0.062                               0.500E+002
 RTBSE|             939           0.062                               0.500E+002
 RTBSE|             940           0.062                               0.500E+002
 RTBSE|             941           0.062                               0.500E+002
 RTBSE|             942           0.062                               0.500E+002
 RTBSE|             943           0.062                               0.500E+002
 RTBSE|             944           0.062                               0.500E+002
 RTBSE|             945           0.064                               0.500E+002
 RTBSE|             946           0.062                               0.500E+002
 RTBSE|             947           0.062                               0.500E+002
 RTBSE|             948           0.062                               0.500E+002
 RTBSE|             949           0.062                               0.500E+002
 RTBSE|             950           0.062                               0.500E+002
 RTBSE|             951           0.062                               0.500E+002
 RTBSE|             952           0.062                               0.500E+002
 RTBSE|             953           0.062                               0.500E+002
 RTBSE|             954           0.062                               0.500E+002
 RTBSE|             955           0.062                               0.500E+002
 RTBSE|             956           0.062                               0.500E+002
 RTBSE|             957           0.062                               0.500E+002
 RTBSE|             958           0.062                               0.500E+002
 RTBSE|             959           0.062                               0.500E+002
 RTBSE|             960           0.062                               0.500E+002
 RTBSE|             961           0.062                               0.500E+002
 RTBSE|             962           0.064                               0.500E+002
 RTBSE|             963           0.062                               0.500E+002
 RTBSE|             964           0.062                               0.500E+002
 RTBSE|             965           0.062                               0.500E+002
 RTBSE|             966           0.062                               0.500E+002
 RTBSE|             967           0.062                               0.500E+002
 RTBSE|             968           0.062                               0.500E+002
 RTBSE|             969           0.062                               0.500E+002
 RTBSE|             970           0.062                               0.500E+002
 RTBSE|             971           0.062                               0.500E+002
 RTBSE|             972           0.062                               0.500E+002
 RTBSE|             973           0.062                               0.500E+002
 RTBSE|             974           0.062                               0.500E+002
 RTBSE|             975           0.062                               0.500E+002
 RTBSE|             976           0.062                               0.500E+002
 RTBSE|             977           0.062                               0.500E+002
 RTBSE|             978           0.064                               0.500E+002
 RTBSE|             979           0.062                               0.500E+002
 RTBSE|             980           0.062                               0.500E+002
 RTBSE|             981           0.062                               0.500E+002
 RTBSE|             982           0.062                               0.500E+002
 RTBSE|             983           0.062                               0.500E+002
 RTBSE|             984           0.062                               0.500E+002
 RTBSE|             985           0.062                               0.500E+002
 RTBSE|             986           0.062                               0.500E+002
 RTBSE|             987           0.062                               0.500E+002
 RTBSE|             988           0.062                               0.500E+002
 RTBSE|             989           0.062                               0.500E+002
 RTBSE|             990           0.062                               0.500E+002
 RTBSE|             991           0.062                               0.500E+002
 RTBSE|             992           0.063                               0.500E+002
 RTBSE|             993           0.062                               0.500E+002
 RTBSE|             994           0.062                               0.500E+002
 RTBSE|             995           0.069                               0.500E+002
 RTBSE|             996           0.062                               0.500E+002
 RTBSE|             997           0.062                               0.500E+002
 RTBSE|             998           0.062                               0.500E+002
 RTBSE|             999           0.062                               0.500E+002
 RTBSE|            1000           0.062                               0.500E+002
 RTBSE|            1001           0.062                               0.500E+002
 RTBSE|            1002           0.062                               0.500E+002
 RTBSE|            1003           0.062                               0.500E+002
 RTBSE|            1004           0.062                               0.500E+002
 RTBSE|            1005           0.063                               0.500E+002
 RTBSE|            1006           0.065                               0.500E+002
 RTBSE|            1007           0.062                               0.500E+002
 RTBSE|            1008           0.062                               0.500E+002
 RTBSE|            1009           0.062                               0.500E+002
 RTBSE|            1010           0.064                               0.500E+002
 RTBSE|            1011           0.062                               0.500E+002
 RTBSE|            1012           0.062                               0.500E+002
 RTBSE|            1013           0.062                               0.500E+002
 RTBSE|            1014           0.062                               0.500E+002
 RTBSE|            1015           0.062                               0.500E+002
 RTBSE|            1016           0.062                               0.500E+002
 RTBSE|            1017           0.062                               0.500E+002
 RTBSE|            1018           0.062                               0.500E+002
 RTBSE|            1019           0.062                               0.500E+002
 RTBSE|            1020           0.062                               0.500E+002
 RTBSE|            1021           0.062                               0.500E+002
 RTBSE|            1022           0.062                               0.500E+002
 RTBSE|            1023           0.062                               0.500E+002
 RTBSE|            1024           0.062                               0.500E+002
 RTBSE|            1025           0.062                               0.500E+002
 RTBSE|            1026           0.062                               0.500E+002
 RTBSE|            1027           0.062                               0.500E+002
 RTBSE|            1028           0.062                               0.500E+002
 RTBSE|            1029           0.062                               0.500E+002
 RTBSE|            1030           0.062                               0.500E+002
 RTBSE|            1031           0.062                               0.500E+002
 RTBSE|            1032           0.062                               0.500E+002
 RTBSE|            1033           0.062                               0.500E+002
 RTBSE|            1034           0.062                               0.500E+002
 RTBSE|            1035           0.062                               0.500E+002
 RTBSE|            1036           0.062                               0.500E+002
 RTBSE|            1037           0.062                               0.500E+002
 RTBSE|            1038           0.062                               0.500E+002
 RTBSE|            1039           0.062                               0.500E+002
 RTBSE|            1040           0.062                               0.500E+002
 RTBSE|            1041           0.062                               0.500E+002
 RTBSE|            1042           0.062                               0.500E+002
 RTBSE|            1043           0.064                               0.500E+002
 RTBSE|            1044           0.062                               0.500E+002
 RTBSE|            1045           0.062                               0.500E+002
 RTBSE|            1046           0.062                               0.500E+002
 RTBSE|            1047           0.062                               0.500E+002
 RTBSE|            1048           0.065                               0.500E+002
 RTBSE|            1049           0.062                               0.500E+002
 RTBSE|            1050           0.062                               0.500E+002
 RTBSE|            1051           0.062                               0.500E+002
 RTBSE|            1052           0.062                               0.500E+002
 RTBSE|            1053           0.062                               0.500E+002
 RTBSE|            1054           0.062                               0.500E+002
 RTBSE|            1055           0.062                               0.500E+002
 RTBSE|            1056           0.062                               0.500E+002
 RTBSE|            1057           0.062                               0.500E+002
 RTBSE|            1058           0.062                               0.500E+002
 RTBSE|            1059           0.062                               0.500E+002
 RTBSE|            1060           0.062                               0.500E+002
 RTBSE|            1061           0.062                               0.500E+002
 RTBSE|            1062           0.062                               0.500E+002
 RTBSE|            1063           0.062                               0.500E+002
 RTBSE|            1064           0.062                               0.500E+002
 RTBSE|            1065           0.062                               0.500E+002
 RTBSE|            1066           0.062                               0.500E+002
 RTBSE|            1067           0.062                               0.500E+002
 RTBSE|            1068           0.062                               0.500E+002
 RTBSE|            1069           0.062                               0.500E+002
 RTBSE|            1070           0.062                               0.500E+002
 RTBSE|            1071           0.063                               0.500E+002
 RTBSE|            1072           0.062                               0.500E+002
 RTBSE|            1073           0.062                               0.500E+002
 RTBSE|            1074           0.062                               0.500E+002
 RTBSE|            1075           0.062                               0.500E+002
 RTBSE|            1076           0.063                               0.500E+002
 RTBSE|            1077           0.062                               0.500E+002
 RTBSE|            1078           0.062                               0.500E+002
 RTBSE|            1079           0.062                               0.500E+002
 RTBSE|            1080           0.062                               0.500E+002
 RTBSE|            1081           0.062                               0.500E+002
 RTBSE|            1082           0.067                               0.500E+002
 RTBSE|            1083           0.062                               0.500E+002
 RTBSE|            1084           0.062                               0.500E+002
 RTBSE|            1085           0.062                               0.500E+002
 RTBSE|            1086           0.062                               0.500E+002
 RTBSE|            1087           0.064                               0.500E+002
 RTBSE|            1088           0.062                               0.500E+002
 RTBSE|            1089           0.062                               0.500E+002
 RTBSE|            1090           0.062                               0.500E+002
 RTBSE|            1091           0.062                               0.500E+002
 RTBSE|            1092           0.062                               0.500E+002
 RTBSE|            1093           0.062                               0.500E+002
 RTBSE|            1094           0.062                               0.500E+002
 RTBSE|            1095           0.062                               0.500E+002
 RTBSE|            1096           0.199                               0.500E+002
 RTBSE|            1097           0.114                               0.500E+002
 RTBSE|            1098           0.062                               0.500E+002
 RTBSE|            1099           0.117                               0.500E+002
 RTBSE|            1100           0.063                               0.500E+002
 RTBSE|            1101           0.062                               0.500E+002
 RTBSE|            1102           0.098                               0.500E+002
 RTBSE|            1103           0.062                               0.500E+002
 RTBSE|            1104           0.063                               0.500E+002
 RTBSE|            1105           0.062                               0.500E+002
 RTBSE|            1106           0.062                               0.500E+002
 RTBSE|            1107           0.062                               0.500E+002
 RTBSE|            1108           0.062                               0.500E+002
 RTBSE|            1109           0.062                               0.500E+002
 RTBSE|            1110           0.062                               0.500E+002
 RTBSE|            1111           0.062                               0.500E+002
 RTBSE|            1112           0.062                               0.500E+002
 RTBSE|            1113           0.062                               0.500E+002
 RTBSE|            1114           0.062                               0.500E+002
 RTBSE|            1115           0.063                               0.500E+002
 RTBSE|            1116           0.062                               0.500E+002
 RTBSE|            1117           0.064                               0.500E+002
 RTBSE|            1118           0.062                               0.500E+002
 RTBSE|            1119           0.062                               0.500E+002
 RTBSE|            1120           0.062                               0.500E+002
 RTBSE|            1121           0.062                               0.500E+002
 RTBSE|            1122           0.062                               0.500E+002
 RTBSE|            1123           0.063                               0.500E+002
 RTBSE|            1124           0.062                               0.500E+002
 RTBSE|            1125           0.062                               0.500E+002
 RTBSE|            1126           0.062                               0.500E+002
 RTBSE|            1127           0.062                               0.500E+002
 RTBSE|            1128           0.062                               0.500E+002
 RTBSE|            1129           0.062                               0.500E+002
 RTBSE|            1130           0.062                               0.500E+002
 RTBSE|            1131           0.062                               0.500E+002
 RTBSE|            1132           0.062                               0.500E+002
 RTBSE|            1133           0.062                               0.500E+002
 RTBSE|            1134           0.062                               0.500E+002
 RTBSE|            1135           0.062                               0.500E+002
 RTBSE|            1136           0.064                               0.500E+002
 RTBSE|            1137           0.062                               0.500E+002
 RTBSE|            1138           0.062                               0.500E+002
 RTBSE|            1139           0.062                               0.500E+002
 RTBSE|            1140           0.062                               0.500E+002
 RTBSE|            1141           0.062                               0.500E+002
 RTBSE|            1142           0.062                               0.500E+002
 RTBSE|            1143           0.062                               0.500E+002
 RTBSE|            1144           0.062                               0.500E+002
 RTBSE|            1145           0.062                               0.500E+002
 RTBSE|            1146           0.062                               0.500E+002
 RTBSE|            1147           0.063                               0.500E+002
 RTBSE|            1148           0.062                               0.500E+002
 RTBSE|            1149           0.073                               0.500E+002
 RTBSE|            1150           0.063                               0.500E+002
 RTBSE|            1151           0.062                               0.500E+002
 RTBSE|            1152           0.062                               0.500E+002
 RTBSE|            1153           0.062                               0.500E+002
 RTBSE|            1154           0.062                               0.500E+002
 RTBSE|            1155           0.062                               0.500E+002
 RTBSE|            1156           0.062                               0.500E+002
 RTBSE|            1157           0.062                               0.500E+002
 RTBSE|            1158           0.062                               0.500E+002
 RTBSE|            1159           0.063                               0.500E+002
 RTBSE|            1160           0.065                               0.500E+002
 RTBSE|            1161           0.062                               0.500E+002
 RTBSE|            1162           0.062                               0.500E+002
 RTBSE|            1163           0.063                               0.500E+002
 RTBSE|            1164           0.062                               0.500E+002
 RTBSE|            1165           0.062                               0.500E+002
 RTBSE|            1166           0.062                               0.500E+002
 RTBSE|            1167           0.062                               0.500E+002
 RTBSE|            1168           0.062                               0.500E+002
 RTBSE|            1169           0.064                               0.500E+002
 RTBSE|            1170           0.062                               0.500E+002
 RTBSE|            1171           0.062                               0.500E+002
 RTBSE|            1172           0.062                               0.500E+002
 RTBSE|            1173           0.062                               0.500E+002
 RTBSE|            1174           0.063                               0.500E+002
 RTBSE|            1175           0.062                               0.500E+002
 RTBSE|            1176           0.062                               0.500E+002
 RTBSE|            1177           0.062                               0.500E+002
 RTBSE|            1178           0.062                               0.500E+002
 RTBSE|            1179           0.062                               0.500E+002
 RTBSE|            1180           0.062                               0.500E+002
 RTBSE|            1181           0.062                               0.500E+002
 RTBSE|            1182           0.064                               0.500E+002
 RTBSE|            1183           0.062                               0.500E+002
 RTBSE|            1184           0.062                               0.500E+002
 RTBSE|            1185           0.062                               0.500E+002
 RTBSE|            1186           0.062                               0.500E+002
 RTBSE|            1187           0.062                               0.500E+002
 RTBSE|            1188           0.062                               0.500E+002
 RTBSE|            1189           0.062                               0.500E+002
 RTBSE|            1190           0.062                               0.500E+002
 RTBSE|            1191           0.062                               0.500E+002
 RTBSE|            1192           0.062                               0.500E+002
 RTBSE|            1193           0.062                               0.500E+002
 RTBSE|            1194           0.062                               0.500E+002
 RTBSE|            1195           0.062                               0.500E+002
 RTBSE|            1196           0.062                               0.500E+002
 RTBSE|            1197           0.062                               0.500E+002
 RTBSE|            1198           0.062                               0.500E+002
 RTBSE|            1199           0.062                               0.500E+002
 RTBSE|            1200           0.062                               0.500E+002
 RTBSE|            1201           0.063                               0.500E+002
 RTBSE|            1202           0.062                               0.500E+002
 RTBSE|            1203           0.062                               0.500E+002
 RTBSE|            1204           0.062                               0.500E+002
 RTBSE|            1205           0.062                               0.500E+002
 RTBSE|            1206           0.065                               0.500E+002
 RTBSE|            1207           0.062                               0.500E+002
 RTBSE|            1208           0.062                               0.500E+002
 RTBSE|            1209           0.062                               0.500E+002
 RTBSE|            1210           0.062                               0.500E+002
 RTBSE|            1211           0.062                               0.500E+002
 RTBSE|            1212           0.062                               0.500E+002
 RTBSE|            1213           0.062                               0.500E+002
 RTBSE|            1214           0.062                               0.500E+002
 RTBSE|            1215           0.062                               0.500E+002
 RTBSE|            1216           0.062                               0.500E+002
 RTBSE|            1217           0.062                               0.500E+002
 RTBSE|            1218           0.062                               0.500E+002
 RTBSE|            1219           0.062                               0.500E+002
 RTBSE|            1220           0.062                               0.500E+002
 RTBSE|            1221           0.062                               0.500E+002
 RTBSE|            1222           0.062                               0.500E+002
 RTBSE|            1223           0.062                               0.500E+002
 RTBSE|            1224           0.062                               0.500E+002
 RTBSE|            1225           0.062                               0.500E+002
 RTBSE|            1226           0.062                               0.500E+002
 RTBSE|            1227           0.062                               0.500E+002
 RTBSE|            1228           0.062                               0.500E+002
 RTBSE|            1229           0.063                               0.500E+002
 RTBSE|            1230           0.062                               0.500E+002
 RTBSE|            1231           0.062                               0.500E+002
 RTBSE|            1232           0.062                               0.500E+002
 RTBSE|            1233           0.062                               0.500E+002
 RTBSE|            1234           0.063                               0.500E+002
 RTBSE|            1235           0.062                               0.500E+002
 RTBSE|            1236           0.062                               0.500E+002
 RTBSE|            1237           0.067                               0.500E+002
 RTBSE|            1238           0.062                               0.500E+002
 RTBSE|            1239           0.062                               0.500E+002
 RTBSE|            1240           0.062                               0.500E+002
 RTBSE|            1241           0.062                               0.500E+002
 RTBSE|            1242           0.062                               0.500E+002
 RTBSE|            1243           0.062                               0.500E+002
 RTBSE|            1244           0.062                               0.500E+002
 RTBSE|            1245           0.062                               0.500E+002
 RTBSE|            1246           0.062                               0.500E+002
 RTBSE|            1247           0.062                               0.500E+002
 RTBSE|            1248           0.062                               0.500E+002
 RTBSE|            1249           0.062                               0.500E+002
 RTBSE|            1250           0.062                               0.500E+002
 RTBSE|            1251           0.062                               0.500E+002
 RTBSE|            1252           0.062                               0.500E+002
 RTBSE|            1253           0.062                               0.500E+002
 RTBSE|            1254           0.062                               0.500E+002
 RTBSE|            1255           0.062                               0.500E+002
 RTBSE|            1256           0.062                               0.500E+002
 RTBSE|            1257           0.062                               0.500E+002
 RTBSE|            1258           0.062                               0.500E+002
 RTBSE|            1259           0.062                               0.500E+002
 RTBSE|            1260           0.062                               0.500E+002
 RTBSE|            1261           0.062                               0.500E+002
 RTBSE|            1262           0.062                               0.500E+002
 RTBSE|            1263           0.062                               0.500E+002
 RTBSE|            1264           0.062                               0.500E+002
 RTBSE|            1265           0.062                               0.500E+002
 RTBSE|            1266           0.063                               0.500E+002
 RTBSE|            1267           0.062                               0.500E+002
 RTBSE|            1268           0.062                               0.500E+002
 RTBSE|            1269           0.062                               0.500E+002
 RTBSE|            1270           0.062                               0.500E+002
 RTBSE|            1271           0.062                               0.500E+002
 RTBSE|            1272           0.062                               0.500E+002
 RTBSE|            1273           0.062                               0.500E+002
 RTBSE|            1274           0.062                               0.500E+002
 RTBSE|            1275           0.064                               0.500E+002
 RTBSE|            1276           0.062                               0.500E+002
 RTBSE|            1277           0.062                               0.500E+002
 RTBSE|            1278           0.062                               0.500E+002
 RTBSE|            1279           0.062                               0.500E+002
 RTBSE|            1280           0.062                               0.500E+002
 RTBSE|            1281           0.062                               0.500E+002
 RTBSE|            1282           0.062                               0.500E+002
 RTBSE|            1283           0.062                               0.500E+002
 RTBSE|            1284           0.062                               0.500E+002
 RTBSE|            1285           0.062                               0.500E+002
 RTBSE|            1286           0.062                               0.500E+002
 RTBSE|            1287           0.062                               0.500E+002
 RTBSE|            1288           0.062                               0.500E+002
 RTBSE|            1289           0.062                               0.500E+002
 RTBSE|            1290           0.062                               0.500E+002
 RTBSE|            1291           0.062                               0.500E+002
 RTBSE|            1292           0.062                               0.500E+002
 RTBSE|            1293           0.062                               0.500E+002
 RTBSE|            1294           0.062                               0.500E+002
 RTBSE|            1295           0.062                               0.500E+002
 RTBSE|            1296           0.062                               0.500E+002
 RTBSE|            1297           0.062                               0.500E+002
 RTBSE|            1298           0.062                               0.500E+002
 RTBSE|            1299           0.064                               0.500E+002
 RTBSE|            1300           0.062                               0.500E+002
 RTBSE|            1301           0.062                               0.500E+002
 RTBSE|            1302           0.062                               0.500E+002
 RTBSE|            1303           0.062                               0.500E+002
 RTBSE|            1304           0.062                               0.500E+002
 RTBSE|            1305           0.062                               0.500E+002
 RTBSE|            1306           0.064                               0.500E+002
 RTBSE|            1307           0.062                               0.500E+002
 RTBSE|            1308           0.069                               0.500E+002
 RTBSE|            1309           0.063                               0.500E+002
 RTBSE|            1310           0.062                               0.500E+002
 RTBSE|            1311           0.062                               0.500E+002
 RTBSE|            1312           0.062                               0.500E+002
 RTBSE|            1313           0.062                               0.500E+002
 RTBSE|            1314           0.062                               0.500E+002
 RTBSE|            1315           0.062                               0.500E+002
 RTBSE|            1316           0.062                               0.500E+002
 RTBSE|            1317           0.062                               0.500E+002
 RTBSE|            1318           0.063                               0.500E+002
 RTBSE|            1319           0.065                               0.500E+002
 RTBSE|            1320           0.062                               0.500E+002
 RTBSE|            1321           0.062                               0.500E+002
 RTBSE|            1322           0.062                               0.500E+002
 RTBSE|            1323           0.062                               0.500E+002
 RTBSE|            1324           0.062                               0.500E+002
 RTBSE|            1325           0.062                               0.500E+002
 RTBSE|            1326           0.062                               0.500E+002
 RTBSE|            1327           0.062                               0.500E+002
 RTBSE|            1328           0.062                               0.500E+002
 RTBSE|            1329           0.062                               0.500E+002
 RTBSE|            1330           0.062                               0.500E+002
 RTBSE|            1331           0.064                               0.500E+002
 RTBSE|            1332           0.062                               0.500E+002
 RTBSE|            1333           0.062                               0.500E+002
 RTBSE|            1334           0.062                               0.500E+002
 RTBSE|            1335           0.062                               0.500E+002
 RTBSE|            1336           0.062                               0.500E+002
 RTBSE|            1337           0.062                               0.500E+002
 RTBSE|            1338           0.062                               0.500E+002
 RTBSE|            1339           0.062                               0.500E+002
 RTBSE|            1340           0.062                               0.500E+002
 RTBSE|            1341           0.062                               0.500E+002
 RTBSE|            1342           0.062                               0.500E+002
 RTBSE|            1343           0.062                               0.500E+002
 RTBSE|            1344           0.062                               0.500E+002
 RTBSE|            1345           0.062                               0.500E+002
 RTBSE|            1346           0.062                               0.500E+002
 RTBSE|            1347           0.062                               0.500E+002
 RTBSE|            1348           0.062                               0.500E+002
 RTBSE|            1349           0.062                               0.500E+002
 RTBSE|            1350           0.062                               0.500E+002
 RTBSE|            1351           0.062                               0.500E+002
 RTBSE|            1352           0.062                               0.500E+002
 RTBSE|            1353           0.062                               0.500E+002
 RTBSE|            1354           0.062                               0.500E+002
 RTBSE|            1355           0.062                               0.500E+002
 RTBSE|            1356           0.062                               0.500E+002
 RTBSE|            1357           0.062                               0.500E+002
 RTBSE|            1358           0.062                               0.500E+002
 RTBSE|            1359           0.062                               0.500E+002
 RTBSE|            1360           0.062                               0.500E+002
 RTBSE|            1361           0.062                               0.500E+002
 RTBSE|            1362           0.063                               0.500E+002
 RTBSE|            1363           0.062                               0.500E+002
 RTBSE|            1364           0.063                               0.500E+002
 RTBSE|            1365           0.062                               0.500E+002
 RTBSE|            1366           0.062                               0.500E+002
 RTBSE|            1367           0.062                               0.500E+002
 RTBSE|            1368           0.062                               0.500E+002
 RTBSE|            1369           0.065                               0.500E+002
 RTBSE|            1370           0.062                               0.500E+002
 RTBSE|            1371           0.062                               0.500E+002
 RTBSE|            1372           0.062                               0.500E+002
 RTBSE|            1373           0.062                               0.500E+002
 RTBSE|            1374           0.062                               0.500E+002
 RTBSE|            1375           0.062                               0.500E+002
 RTBSE|            1376           0.062                               0.500E+002
 RTBSE|            1377           0.062                               0.500E+002
 RTBSE|            1378           0.062                               0.500E+002
 RTBSE|            1379           0.062                               0.500E+002
 RTBSE|            1380           0.062                               0.500E+002
 RTBSE|            1381           0.062                               0.500E+002
 RTBSE|            1382           0.062                               0.500E+002
 RTBSE|            1383           0.062                               0.500E+002
 RTBSE|            1384           0.062                               0.500E+002
 RTBSE|            1385           0.062                               0.500E+002
 RTBSE|            1386           0.063                               0.500E+002
 RTBSE|            1387           0.062                               0.500E+002
 RTBSE|            1388           0.063                               0.500E+002
 RTBSE|            1389           0.062                               0.500E+002
 RTBSE|            1390           0.062                               0.500E+002
 RTBSE|            1391           0.062                               0.500E+002
 RTBSE|            1392           0.062                               0.500E+002
 RTBSE|            1393           0.062                               0.500E+002
 RTBSE|            1394           0.062                               0.500E+002
 RTBSE|            1395           0.062                               0.500E+002
 RTBSE|            1396           0.067                               0.500E+002
 RTBSE|            1397           0.064                               0.500E+002
 RTBSE|            1398           0.062                               0.500E+002
 RTBSE|            1399           0.062                               0.500E+002
 RTBSE|            1400           0.062                               0.500E+002
 RTBSE|            1401           0.062                               0.500E+002
 RTBSE|            1402           0.062                               0.500E+002
 RTBSE|            1403           0.062                               0.500E+002
 RTBSE|            1404           0.062                               0.500E+002
 RTBSE|            1405           0.062                               0.500E+002
 RTBSE|            1406           0.062                               0.500E+002
 RTBSE|            1407           0.062                               0.500E+002
 RTBSE|            1408           0.062                               0.500E+002
 RTBSE|            1409           0.062                               0.500E+002
 RTBSE|            1410           0.062                               0.500E+002
 RTBSE|            1411           0.062                               0.500E+002
 RTBSE|            1412           0.062                               0.500E+002
 RTBSE|            1413           0.062                               0.500E+002
 RTBSE|            1414           0.062                               0.500E+002
 RTBSE|            1415           0.062                               0.500E+002
 RTBSE|            1416           0.062                               0.500E+002
 RTBSE|            1417           0.062                               0.500E+002
 RTBSE|            1418           0.062                               0.500E+002
 RTBSE|            1419           0.062                               0.500E+002
 RTBSE|            1420           0.062                               0.500E+002
 RTBSE|            1421           0.062                               0.500E+002
 RTBSE|            1422           0.062                               0.500E+002
 RTBSE|            1423           0.062                               0.500E+002
 RTBSE|            1424           0.062                               0.500E+002
 RTBSE|            1425           0.062                               0.500E+002
 RTBSE|            1426           0.062                               0.500E+002
 RTBSE|            1427           0.062                               0.500E+002
 RTBSE|            1428           0.062                               0.500E+002
 RTBSE|            1429           0.063                               0.500E+002
 RTBSE|            1430           0.062                               0.500E+002
 RTBSE|            1431           0.062                               0.500E+002
 RTBSE|            1432           0.062                               0.500E+002
 RTBSE|            1433           0.062                               0.500E+002
 RTBSE|            1434           0.064                               0.500E+002
 RTBSE|            1435           0.062                               0.500E+002
 RTBSE|            1436           0.062                               0.500E+002
 RTBSE|            1437           0.062                               0.500E+002
 RTBSE|            1438           0.062                               0.500E+002
 RTBSE|            1439           0.062                               0.500E+002
 RTBSE|            1440           0.062                               0.500E+002
 RTBSE|            1441           0.062                               0.500E+002
 RTBSE|            1442           0.062                               0.500E+002
 RTBSE|            1443           0.062                               0.500E+002
 RTBSE|            1444           0.062                               0.500E+002
 RTBSE|            1445           0.062                               0.500E+002
 RTBSE|            1446           0.065                               0.500E+002
 RTBSE|            1447           0.062                               0.500E+002
 RTBSE|            1448           0.062                               0.500E+002
 RTBSE|            1449           0.062                               0.500E+002
 RTBSE|            1450           0.062                               0.500E+002
 RTBSE|            1451           0.062                               0.500E+002
 RTBSE|            1452           0.062                               0.500E+002
 RTBSE|            1453           0.062                               0.500E+002
 RTBSE|            1454           0.062                               0.500E+002
 RTBSE|            1455           0.062                               0.500E+002
 RTBSE|            1456           0.062                               0.500E+002
 RTBSE|            1457           0.062                               0.500E+002
 RTBSE|            1458           0.062                               0.500E+002
 RTBSE|            1459           0.062                               0.500E+002
 RTBSE|            1460           0.062                               0.500E+002
 RTBSE|            1461           0.062                               0.500E+002
 RTBSE|            1462           0.064                               0.500E+002
 RTBSE|            1463           0.062                               0.500E+002
 RTBSE|            1464           0.062                               0.500E+002
 RTBSE|            1465           0.063                               0.500E+002
 RTBSE|            1466           0.062                               0.500E+002
 RTBSE|            1467           0.069                               0.500E+002
 RTBSE|            1468           0.063                               0.500E+002
 RTBSE|            1469           0.062                               0.500E+002
 RTBSE|            1470           0.062                               0.500E+002
 RTBSE|            1471           0.062                               0.500E+002
 RTBSE|            1472           0.062                               0.500E+002
 RTBSE|            1473           0.062                               0.500E+002
 RTBSE|            1474           0.062                               0.500E+002
 RTBSE|            1475           0.062                               0.500E+002
 RTBSE|            1476           0.062                               0.500E+002
 RTBSE|            1477           0.062                               0.500E+002
 RTBSE|            1478           0.065                               0.500E+002
 RTBSE|            1479           0.062                               0.500E+002
 RTBSE|            1480           0.062                               0.500E+002
 RTBSE|            1481           0.062                               0.500E+002
 RTBSE|            1482           0.062                               0.500E+002
 RTBSE|            1483           0.062                               0.500E+002
 RTBSE|            1484           0.062                               0.500E+002
 RTBSE|            1485           0.062                               0.500E+002
 RTBSE|            1486           0.062                               0.500E+002
 RTBSE|            1487           0.062                               0.500E+002
 RTBSE|            1488           0.062                               0.500E+002
 RTBSE|            1489           0.062                               0.500E+002
 RTBSE|            1490           0.062                               0.500E+002
 RTBSE|            1491           0.063                               0.500E+002
 RTBSE|            1492           0.062                               0.500E+002
 RTBSE|            1493           0.062                               0.500E+002
 RTBSE|            1494           0.064                               0.500E+002
 RTBSE|            1495           0.062                               0.500E+002
 RTBSE|            1496           0.062                               0.500E+002
 RTBSE|            1497           0.062                               0.500E+002
 RTBSE|            1498           0.062                               0.500E+002
 RTBSE|            1499           0.063                               0.500E+002
 RTBSE|            1500           0.062                               0.500E+002
 RTBSE|            1501           0.062                               0.500E+002
 RTBSE|            1502           0.062                               0.500E+002
 RTBSE|            1503           0.062                               0.500E+002
 RTBSE|            1504           0.062                               0.500E+002
 RTBSE|            1505           0.062                               0.500E+002
 RTBSE|            1506           0.062                               0.500E+002
 RTBSE|            1507           0.062                               0.500E+002
 RTBSE|            1508           0.062                               0.500E+002
 RTBSE|            1509           0.062                               0.500E+002
 RTBSE|            1510           0.062                               0.500E+002
 RTBSE|            1511           0.062                               0.500E+002
 RTBSE|            1512           0.062                               0.500E+002
 RTBSE|            1513           0.062                               0.500E+002
 RTBSE|            1514           0.062                               0.500E+002
 RTBSE|            1515           0.062                               0.500E+002
 RTBSE|            1516           0.062                               0.500E+002
 RTBSE|            1517           0.062                               0.500E+002
 RTBSE|            1518           0.062                               0.500E+002
 RTBSE|            1519           0.062                               0.500E+002
 RTBSE|            1520           0.062                               0.500E+002
 RTBSE|            1521           0.062                               0.500E+002
 RTBSE|            1522           0.062                               0.500E+002
 RTBSE|            1523           0.062                               0.500E+002
 RTBSE|            1524           0.062                               0.500E+002
 RTBSE|            1525           0.062                               0.500E+002
 RTBSE|            1526           0.062                               0.500E+002
 RTBSE|            1527           0.063                               0.500E+002
 RTBSE|            1528           0.062                               0.500E+002
 RTBSE|            1529           0.062                               0.500E+002
 RTBSE|            1530           0.062                               0.500E+002
 RTBSE|            1531           0.062                               0.500E+002
 RTBSE|            1532           0.065                               0.500E+002
 RTBSE|            1533           0.062                               0.500E+002
 RTBSE|            1534           0.062                               0.500E+002
 RTBSE|            1535           0.062                               0.500E+002
 RTBSE|            1536           0.062                               0.500E+002
 RTBSE|            1537           0.062                               0.500E+002
 RTBSE|            1538           0.062                               0.500E+002
 RTBSE|            1539           0.062                               0.500E+002
 RTBSE|            1540           0.062                               0.500E+002
 RTBSE|            1541           0.062                               0.500E+002
 RTBSE|            1542           0.062                               0.500E+002
 RTBSE|            1543           0.062                               0.500E+002
 RTBSE|            1544           0.064                               0.500E+002
 RTBSE|            1545           0.062                               0.500E+002
 RTBSE|            1546           0.062                               0.500E+002
 RTBSE|            1547           0.062                               0.500E+002
 RTBSE|            1548           0.063                               0.500E+002
 RTBSE|            1549           0.062                               0.500E+002
 RTBSE|            1550           0.062                               0.500E+002
 RTBSE|            1551           0.062                               0.500E+002
 RTBSE|            1552           0.062                               0.500E+002
 RTBSE|            1553           0.062                               0.500E+002
 RTBSE|            1554           0.062                               0.500E+002
 RTBSE|            1555           0.067                               0.500E+002
 RTBSE|            1556           0.062                               0.500E+002
 RTBSE|            1557           0.062                               0.500E+002
 RTBSE|            1558           0.062                               0.500E+002
 RTBSE|            1559           0.062                               0.500E+002
 RTBSE|            1560           0.063                               0.500E+002
 RTBSE|            1561           0.062                               0.500E+002
 RTBSE|            1562           0.062                               0.500E+002
 RTBSE|            1563           0.062                               0.500E+002
 RTBSE|            1564           0.062                               0.500E+002
 RTBSE|            1565           0.062                               0.500E+002
 RTBSE|            1566           0.062                               0.500E+002
 RTBSE|            1567           0.062                               0.500E+002
 RTBSE|            1568           0.062                               0.500E+002
 RTBSE|            1569           0.096                               0.500E+002
 RTBSE|            1570           0.062                               0.500E+002
 RTBSE|            1571           0.062                               0.500E+002
 RTBSE|            1572           0.062                               0.500E+002
 RTBSE|            1573           0.062                               0.500E+002
 RTBSE|            1574           0.062                               0.500E+002
 RTBSE|            1575           0.062                               0.500E+002
 RTBSE|            1576           0.062                               0.500E+002
 RTBSE|            1577           0.062                               0.500E+002
 RTBSE|            1578           0.062                               0.500E+002
 RTBSE|            1579           0.062                               0.500E+002
 RTBSE|            1580           0.062                               0.500E+002
 RTBSE|            1581           0.062                               0.500E+002
 RTBSE|            1582           0.062                               0.500E+002
 RTBSE|            1583           0.062                               0.500E+002
 RTBSE|            1584           0.062                               0.500E+002
 RTBSE|            1585           0.062                               0.500E+002
 RTBSE|            1586           0.062                               0.500E+002
 RTBSE|            1587           0.062                               0.500E+002
 RTBSE|            1588           0.062                               0.500E+002
 RTBSE|            1589           0.062                               0.500E+002
 RTBSE|            1590           0.062                               0.500E+002
 RTBSE|            1591           0.062                               0.500E+002
 RTBSE|            1592           0.063                               0.500E+002
 RTBSE|            1593           0.062                               0.500E+002
 RTBSE|            1594           0.062                               0.500E+002
 RTBSE|            1595           0.062                               0.500E+002
 RTBSE|            1596           0.062                               0.500E+002
 RTBSE|            1597           0.062                               0.500E+002
 RTBSE|            1598           0.062                               0.500E+002
 RTBSE|            1599           0.062                               0.500E+002
 RTBSE|            1600           0.063                               0.500E+002
 RTBSE|            1601           0.062                               0.500E+002
 RTBSE|            1602           0.062                               0.500E+002
 RTBSE|            1603           0.062                               0.500E+002
 RTBSE|            1604           0.062                               0.500E+002
 RTBSE|            1605           0.062                               0.500E+002
 RTBSE|            1606           0.063                               0.500E+002
 RTBSE|            1607           0.080                               0.500E+002
 RTBSE|            1608           0.062                               0.500E+002
 RTBSE|            1609           0.062                               0.500E+002
 RTBSE|            1610           0.062                               0.500E+002
 RTBSE|            1611           0.062                               0.500E+002
 RTBSE|            1612           0.062                               0.500E+002
 RTBSE|            1613           0.062                               0.500E+002
 RTBSE|            1614           0.062                               0.500E+002
 RTBSE|            1615           0.062                               0.500E+002
 RTBSE|            1616           0.062                               0.500E+002
 RTBSE|            1617           0.062                               0.500E+002
 RTBSE|            1618           0.062                               0.500E+002
 RTBSE|            1619           0.062                               0.500E+002
 RTBSE|            1620           0.062                               0.500E+002
 RTBSE|            1621           0.062                               0.500E+002
 RTBSE|            1622           0.062                               0.500E+002
 RTBSE|            1623           0.122                               0.500E+002
 RTBSE|            1624           0.085                               0.500E+002
 RTBSE|            1625           0.063                               0.500E+002
 RTBSE|            1626           0.062                               0.500E+002
 RTBSE|            1627           0.062                               0.500E+002
 RTBSE|            1628           0.064                               0.500E+002
 RTBSE|            1629           0.062                               0.500E+002
 RTBSE|            1630           0.062                               0.500E+002
 RTBSE|            1631           0.062                               0.500E+002
 RTBSE|            1632           0.062                               0.500E+002
 RTBSE|            1633           0.062                               0.500E+002
 RTBSE|            1634           0.062                               0.500E+002
 RTBSE|            1635           0.065                               0.500E+002
 RTBSE|            1636           0.062                               0.500E+002
 RTBSE|            1637           0.062                               0.500E+002
 RTBSE|            1638           0.070                               0.500E+002
 RTBSE|            1639           0.095                               0.500E+002
 RTBSE|            1640           0.062                               0.500E+002
 RTBSE|            1641           0.062                               0.500E+002
 RTBSE|            1642           0.062                               0.500E+002
 RTBSE|            1643           0.062                               0.500E+002
 RTBSE|            1644           0.062                               0.500E+002
 RTBSE|            1645           0.062                               0.500E+002
 RTBSE|            1646           0.062                               0.500E+002
 RTBSE|            1647           0.062                               0.500E+002
 RTBSE|            1648           0.062                               0.500E+002
 RTBSE|            1649           0.062                               0.500E+002
 RTBSE|            1650           0.062                               0.500E+002
 RTBSE|            1651           0.062                               0.500E+002
 RTBSE|            1652           0.062                               0.500E+002
 RTBSE|            1653           0.063                               0.500E+002
 RTBSE|            1654           0.107                               0.500E+002
 RTBSE|            1655           0.065                               0.500E+002
 RTBSE|            1656           0.062                               0.500E+002
 RTBSE|            1657           0.062                               0.500E+002
 RTBSE|            1658           0.062                               0.500E+002
 RTBSE|            1659           0.062                               0.500E+002
 RTBSE|            1660           0.062                               0.500E+002
 RTBSE|            1661           0.062                               0.500E+002
 RTBSE|            1662           0.062                               0.500E+002
 RTBSE|            1663           0.062                               0.500E+002
 RTBSE|            1664           0.062                               0.500E+002
 RTBSE|            1665           0.062                               0.500E+002
 RTBSE|            1666           0.062                               0.500E+002
 RTBSE|            1667           0.062                               0.500E+002
 RTBSE|            1668           0.062                               0.500E+002
 RTBSE|            1669           0.062                               0.500E+002
 RTBSE|            1670           0.065                               0.500E+002
 RTBSE|            1671           0.062                               0.500E+002
 RTBSE|            1672           0.062                               0.500E+002
 RTBSE|            1673           0.062                               0.500E+002
 RTBSE|            1674           0.062                               0.500E+002
 RTBSE|            1675           0.062                               0.500E+002
 RTBSE|            1676           0.062                               0.500E+002
 RTBSE|            1677           0.062                               0.500E+002
 RTBSE|            1678           0.062                               0.500E+002
 RTBSE|            1679           0.062                               0.500E+002
 RTBSE|            1680           0.062                               0.500E+002
 RTBSE|            1681           0.062                               0.500E+002
 RTBSE|            1682           0.062                               0.500E+002
 RTBSE|            1683           0.062                               0.500E+002
 RTBSE|            1684           0.062                               0.500E+002
 RTBSE|            1685           0.062                               0.500E+002
 RTBSE|            1686           0.067                               0.500E+002
 RTBSE|            1687           0.062                               0.500E+002
 RTBSE|            1688           0.062                               0.500E+002
 RTBSE|            1689           0.062                               0.500E+002
 RTBSE|            1690           0.062                               0.500E+002
 RTBSE|            1691           0.065                               0.500E+002
 RTBSE|            1692           0.062                               0.500E+002
 RTBSE|            1693           0.062                               0.500E+002
 RTBSE|            1694           0.062                               0.500E+002
 RTBSE|            1695           0.062                               0.500E+002
 RTBSE|            1696           0.062                               0.500E+002
 RTBSE|            1697           0.062                               0.500E+002
 RTBSE|            1698           0.062                               0.500E+002
 RTBSE|            1699           0.062                               0.500E+002
 RTBSE|            1700           0.062                               0.500E+002
 RTBSE|            1701           0.062                               0.500E+002
 RTBSE|            1702           0.064                               0.500E+002
 RTBSE|            1703           0.063                               0.500E+002
 RTBSE|            1704           0.062                               0.500E+002
 RTBSE|            1705           0.062                               0.500E+002
 RTBSE|            1706           0.062                               0.500E+002
 RTBSE|            1707           0.062                               0.500E+002
 RTBSE|            1708           0.064                               0.500E+002
 RTBSE|            1709           0.062                               0.500E+002
 RTBSE|            1710           0.067                               0.500E+002
 RTBSE|            1711           0.062                               0.500E+002
 RTBSE|            1712           0.062                               0.500E+002
 RTBSE|            1713           0.062                               0.500E+002
 RTBSE|            1714           0.062                               0.500E+002
 RTBSE|            1715           0.062                               0.500E+002
 RTBSE|            1716           0.062                               0.500E+002
 RTBSE|            1717           0.062                               0.500E+002
 RTBSE|            1718           0.139                               0.500E+002
 RTBSE|            1719           0.067                               0.500E+002
 RTBSE|            1720           0.062                               0.500E+002
 RTBSE|            1721           0.062                               0.500E+002
 RTBSE|            1722           0.062                               0.500E+002
 RTBSE|            1723           0.062                               0.500E+002
 RTBSE|            1724           0.062                               0.500E+002
 RTBSE|            1725           0.062                               0.500E+002
 RTBSE|            1726           0.062                               0.500E+002
 RTBSE|            1727           0.062                               0.500E+002
 RTBSE|            1728           0.062                               0.500E+002
 RTBSE|            1729           0.062                               0.500E+002
 RTBSE|            1730           0.062                               0.500E+002
 RTBSE|            1731           0.062                               0.500E+002
 RTBSE|            1732           0.062                               0.500E+002
 RTBSE|            1733           0.062                               0.500E+002
 RTBSE|            1734           0.062                               0.500E+002
 RTBSE|            1735           0.062                               0.500E+002
 RTBSE|            1736           0.062                               0.500E+002
 RTBSE|            1737           0.062                               0.500E+002
 RTBSE|            1738           0.062                               0.500E+002
 RTBSE|            1739           0.062                               0.500E+002
 RTBSE|            1740           0.062                               0.500E+002
 RTBSE|            1741           0.062                               0.500E+002
 RTBSE|            1742           0.062                               0.500E+002
 RTBSE|            1743           0.062                               0.500E+002
 RTBSE|            1744           0.062                               0.500E+002
 RTBSE|            1745           0.062                               0.500E+002
 RTBSE|            1746           0.063                               0.500E+002
 RTBSE|            1747           0.062                               0.500E+002
 RTBSE|            1748           0.065                               0.500E+002
 RTBSE|            1749           0.062                               0.500E+002
 RTBSE|            1750           0.063                               0.500E+002
 RTBSE|            1751           0.062                               0.500E+002
 RTBSE|            1752           0.062                               0.500E+002
 RTBSE|            1753           0.062                               0.500E+002
 RTBSE|            1754           0.062                               0.500E+002
 RTBSE|            1755           0.062                               0.500E+002
 RTBSE|            1756           0.062                               0.500E+002
 RTBSE|            1757           0.062                               0.500E+002
 RTBSE|            1758           0.062                               0.500E+002
 RTBSE|            1759           0.062                               0.500E+002
 RTBSE|            1760           0.062                               0.500E+002
 RTBSE|            1761           0.062                               0.500E+002
 RTBSE|            1762           0.062                               0.500E+002
 RTBSE|            1763           0.062                               0.500E+002
 RTBSE|            1764           0.062                               0.500E+002
 RTBSE|            1765           0.062                               0.500E+002
 RTBSE|            1766           0.062                               0.500E+002
 RTBSE|            1767           0.062                               0.500E+002
 RTBSE|            1768           0.062                               0.500E+002
 RTBSE|            1769           0.062                               0.500E+002
 RTBSE|            1770           0.062                               0.500E+002
 RTBSE|            1771           0.062                               0.500E+002
 RTBSE|            1772           0.062                               0.500E+002
 RTBSE|            1773           0.062                               0.500E+002
 RTBSE|            1774           0.062                               0.500E+002
 RTBSE|            1775           0.062                               0.500E+002
 RTBSE|            1776           0.062                               0.500E+002
 RTBSE|            1777           0.062                               0.500E+002
 RTBSE|            1778           0.065                               0.500E+002
 RTBSE|            1779           0.062                               0.500E+002
 RTBSE|            1780           0.069                               0.500E+002
 RTBSE|            1781           0.063                               0.500E+002
 RTBSE|            1782           0.062                               0.500E+002
 RTBSE|            1783           0.064                               0.500E+002
 RTBSE|            1784           0.062                               0.500E+002
 RTBSE|            1785           0.062                               0.500E+002
 RTBSE|            1786           0.062                               0.500E+002
 RTBSE|            1787           0.062                               0.500E+002
 RTBSE|            1788           0.062                               0.500E+002
 RTBSE|            1789           0.062                               0.500E+002
 RTBSE|            1790           0.063                               0.500E+002
 RTBSE|            1791           0.065                               0.500E+002
 RTBSE|            1792           0.062                               0.500E+002
 RTBSE|            1793           0.062                               0.500E+002
 RTBSE|            1794           0.062                               0.500E+002
 RTBSE|            1795           0.062                               0.500E+002
 RTBSE|            1796           0.062                               0.500E+002
 RTBSE|            1797           0.062                               0.500E+002
 RTBSE|            1798           0.062                               0.500E+002
 RTBSE|            1799           0.062                               0.500E+002
 RTBSE|            1800           0.062                               0.500E+002
 RTBSE|            1801           0.062                               0.500E+002
 RTBSE|            1802           0.062                               0.500E+002
 RTBSE|            1803           0.062                               0.500E+002
 RTBSE|            1804           0.064                               0.500E+002
 RTBSE|            1805           0.062                               0.500E+002
 RTBSE|            1806           0.062                               0.500E+002
 RTBSE|            1807           0.062                               0.500E+002
 RTBSE|            1808           0.062                               0.500E+002
 RTBSE|            1809           0.062                               0.500E+002
 RTBSE|            1810           0.062                               0.500E+002
 RTBSE|            1811           0.062                               0.500E+002
 RTBSE|            1812           0.062                               0.500E+002
 RTBSE|            1813           0.062                               0.500E+002
 RTBSE|            1814           0.062                               0.500E+002
 RTBSE|            1815           0.064                               0.500E+002
 RTBSE|            1816           0.062                               0.500E+002
 RTBSE|            1817           0.062                               0.500E+002
 RTBSE|            1818           0.062                               0.500E+002
 RTBSE|            1819           0.062                               0.500E+002
 RTBSE|            1820           0.062                               0.500E+002
 RTBSE|            1821           0.062                               0.500E+002
 RTBSE|            1822           0.062                               0.500E+002
 RTBSE|            1823           0.062                               0.500E+002
 RTBSE|            1824           0.062                               0.500E+002
 RTBSE|            1825           0.062                               0.500E+002
 RTBSE|            1826           0.062                               0.500E+002
 RTBSE|            1827           0.062                               0.500E+002
 RTBSE|            1828           0.062                               0.500E+002
 RTBSE|            1829           0.062                               0.500E+002
 RTBSE|            1830           0.062                               0.500E+002
 RTBSE|            1831           0.062                               0.500E+002
 RTBSE|            1832           0.062                               0.500E+002
 RTBSE|            1833           0.062                               0.500E+002
 RTBSE|            1834           0.063                               0.500E+002
 RTBSE|            1835           0.062                               0.500E+002
 RTBSE|            1836           0.062                               0.500E+002
 RTBSE|            1837           0.062                               0.500E+002
 RTBSE|            1838           0.062                               0.500E+002
 RTBSE|            1839           0.062                               0.500E+002
 RTBSE|            1840           0.062                               0.500E+002
 RTBSE|            1841           0.062                               0.500E+002
 RTBSE|            1842           0.062                               0.500E+002
 RTBSE|            1843           0.062                               0.500E+002
 RTBSE|            1844           0.062                               0.500E+002
 RTBSE|            1845           0.062                               0.500E+002
 RTBSE|            1846           0.062                               0.500E+002
 RTBSE|            1847           0.062                               0.500E+002
 RTBSE|            1848           0.063                               0.500E+002
 RTBSE|            1849           0.062                               0.500E+002
 RTBSE|            1850           0.062                               0.500E+002
 RTBSE|            1851           0.062                               0.500E+002
 RTBSE|            1852           0.062                               0.500E+002
 RTBSE|            1853           0.065                               0.500E+002
 RTBSE|            1854           0.062                               0.500E+002
 RTBSE|            1855           0.062                               0.500E+002
 RTBSE|            1856           0.062                               0.500E+002
 RTBSE|            1857           0.062                               0.500E+002
 RTBSE|            1858           0.062                               0.500E+002
 RTBSE|            1859           0.062                               0.500E+002
 RTBSE|            1860           0.062                               0.500E+002
 RTBSE|            1861           0.064                               0.500E+002
 RTBSE|            1862           0.062                               0.500E+002
 RTBSE|            1863           0.062                               0.500E+002
 RTBSE|            1864           0.062                               0.500E+002
 RTBSE|            1865           0.062                               0.500E+002
 RTBSE|            1866           0.062                               0.500E+002
 RTBSE|            1867           0.062                               0.500E+002
 RTBSE|            1868           0.067                               0.500E+002
 RTBSE|            1869           0.062                               0.500E+002
 RTBSE|            1870           0.062                               0.500E+002
 RTBSE|            1871           0.062                               0.500E+002
 RTBSE|            1872           0.062                               0.500E+002
 RTBSE|            1873           0.062                               0.500E+002
 RTBSE|            1874           0.062                               0.500E+002
 RTBSE|            1875           0.062                               0.500E+002
 RTBSE|            1876           0.062                               0.500E+002
 RTBSE|            1877           0.062                               0.500E+002
 RTBSE|            1878           0.062                               0.500E+002
 RTBSE|            1879           0.062                               0.500E+002
 RTBSE|            1880           0.064                               0.500E+002
 RTBSE|            1881           0.062                               0.500E+002
 RTBSE|            1882           0.062                               0.500E+002
 RTBSE|            1883           0.062                               0.500E+002
 RTBSE|            1884           0.062                               0.500E+002
 RTBSE|            1885           0.062                               0.500E+002
 RTBSE|            1886           0.062                               0.500E+002
 RTBSE|            1887           0.062                               0.500E+002
 RTBSE|            1888           0.062                               0.500E+002
 RTBSE|            1889           0.062                               0.500E+002
 RTBSE|            1890           0.062                               0.500E+002
 RTBSE|            1891           0.062                               0.500E+002
 RTBSE|            1892           0.062                               0.500E+002
 RTBSE|            1893           0.062                               0.500E+002
 RTBSE|            1894           0.062                               0.500E+002
 RTBSE|            1895           0.062                               0.500E+002
 RTBSE|            1896           0.062                               0.500E+002
 RTBSE|            1897           0.062                               0.500E+002
 RTBSE|            1898           0.062                               0.500E+002
 RTBSE|            1899           0.062                               0.500E+002
 RTBSE|            1900           0.062                               0.500E+002
 RTBSE|            1901           0.062                               0.500E+002
 RTBSE|            1902           0.062                               0.500E+002
 RTBSE|            1903           0.062                               0.500E+002
 RTBSE|            1904           0.062                               0.500E+002
 RTBSE|            1905           0.062                               0.500E+002
 RTBSE|            1906           0.064                               0.500E+002
 RTBSE|            1907           0.062                               0.500E+002
 RTBSE|            1908           0.062                               0.500E+002
 RTBSE|            1909           0.062                               0.500E+002
 RTBSE|            1910           0.062                               0.500E+002
 RTBSE|            1911           0.062                               0.500E+002
 RTBSE|            1912           0.062                               0.500E+002
 RTBSE|            1913           0.063                               0.500E+002
 RTBSE|            1914           0.062                               0.500E+002
 RTBSE|            1915           0.062                               0.500E+002
 RTBSE|            1916           0.062                               0.500E+002
 RTBSE|            1917           0.062                               0.500E+002
 RTBSE|            1918           0.062                               0.500E+002
 RTBSE|            1919           0.062                               0.500E+002
 RTBSE|            1920           0.062                               0.500E+002
 RTBSE|            1921           0.062                               0.500E+002
 RTBSE|            1922           0.062                               0.500E+002
 RTBSE|            1923           0.062                               0.500E+002
 RTBSE|            1924           0.062                               0.500E+002
 RTBSE|            1925           0.062                               0.500E+002
 RTBSE|            1926           0.062                               0.500E+002
 RTBSE|            1927           0.062                               0.500E+002
 RTBSE|            1928           0.062                               0.500E+002
 RTBSE|            1929           0.062                               0.500E+002
 RTBSE|            1930           0.062                               0.500E+002
 RTBSE|            1931           0.062                               0.500E+002
 RTBSE|            1932           0.062                               0.500E+002
 RTBSE|            1933           0.062                               0.500E+002
 RTBSE|            1934           0.062                               0.500E+002
 RTBSE|            1935           0.062                               0.500E+002
 RTBSE|            1936           0.062                               0.500E+002
 RTBSE|            1937           0.063                               0.500E+002
 RTBSE|            1938           0.062                               0.500E+002
 RTBSE|            1939           0.069                               0.500E+002
 RTBSE|            1940           0.063                               0.500E+002
 RTBSE|            1941           0.062                               0.500E+002
 RTBSE|            1942           0.062                               0.500E+002
 RTBSE|            1943           0.062                               0.500E+002
 RTBSE|            1944           0.062                               0.500E+002
 RTBSE|            1945           0.063                               0.500E+002
 RTBSE|            1946           0.062                               0.500E+002
 RTBSE|            1947           0.062                               0.500E+002
 RTBSE|            1948           0.062                               0.500E+002
 RTBSE|            1949           0.063                               0.500E+002
 RTBSE|            1950           0.065                               0.500E+002
 RTBSE|            1951           0.062                               0.500E+002
 RTBSE|            1952           0.062                               0.500E+002
 RTBSE|            1953           0.062                               0.500E+002
 RTBSE|            1954           0.062                               0.500E+002
 RTBSE|            1955           0.062                               0.500E+002
 RTBSE|            1956           0.062                               0.500E+002
 RTBSE|            1957           0.062                               0.500E+002
 RTBSE|            1958           0.062                               0.500E+002
 RTBSE|            1959           0.062                               0.500E+002
 RTBSE|            1960           0.062                               0.500E+002
 RTBSE|            1961           0.062                               0.500E+002
 RTBSE|            1962           0.062                               0.500E+002
 RTBSE|            1963           0.062                               0.500E+002
 RTBSE|            1964           0.062                               0.500E+002
 RTBSE|            1965           0.062                               0.500E+002
 RTBSE|            1966           0.062                               0.500E+002
 RTBSE|            1967           0.062                               0.500E+002
 RTBSE|            1968           0.062                               0.500E+002
 RTBSE|            1969           0.062                               0.500E+002
 RTBSE|            1970           0.062                               0.500E+002
 RTBSE|            1971           0.062                               0.500E+002
 RTBSE|            1972           0.062                               0.500E+002
 RTBSE|            1973           0.062                               0.500E+002
 RTBSE|            1974           0.062                               0.500E+002
 RTBSE|            1975           0.062                               0.500E+002
 RTBSE|            1976           0.062                               0.500E+002
 RTBSE|            1977           0.062                               0.500E+002
 RTBSE|            1978           0.064                               0.500E+002
 RTBSE|            1979           0.062                               0.500E+002
 RTBSE|            1980           0.062                               0.500E+002
 RTBSE|            1981           0.062                               0.500E+002
 RTBSE|            1982           0.062                               0.500E+002
 RTBSE|            1983           0.062                               0.500E+002
 RTBSE|            1984           0.062                               0.500E+002
 RTBSE|            1985           0.062                               0.500E+002
 RTBSE|            1986           0.062                               0.500E+002
 RTBSE|            1987           0.062                               0.500E+002
 RTBSE|            1988           0.062                               0.500E+002
 RTBSE|            1989           0.062                               0.500E+002
 RTBSE|            1990           0.062                               0.500E+002
 RTBSE|            1991           0.062                               0.500E+002
 RTBSE|            1992           0.062                               0.500E+002
 RTBSE|            1993           0.062                               0.500E+002
 RTBSE|            1994           0.062                               0.500E+002
 RTBSE|            1995           0.062                               0.500E+002
 RTBSE|            1996           0.062                               0.500E+002
 RTBSE|            1997           0.062                               0.500E+002
 RTBSE|            1998           0.062                               0.500E+002
 RTBSE|            1999           0.062                               0.500E+002
 RTBSE|            2000           0.062                               0.500E+002
 RTBSE|            2001           0.062                               0.500E+002
 RTBSE|            2002           0.062                               0.500E+002
 RTBSE|            2003           0.062                               0.500E+002
 RTBSE|            2004           0.062                               0.500E+002
 RTBSE|            2005           0.062                               0.500E+002
 RTBSE|            2006           0.062                               0.500E+002
 RTBSE|            2007           0.062                               0.500E+002
 RTBSE|            2008           0.062                               0.500E+002
 RTBSE|            2009           0.062                               0.500E+002
 RTBSE|            2010           0.062                               0.500E+002
 RTBSE|            2011           0.063                               0.500E+002
 RTBSE|            2012           0.062                               0.500E+002
 RTBSE|            2013           0.062                               0.500E+002
 RTBSE|            2014           0.062                               0.500E+002
 RTBSE|            2015           0.062                               0.500E+002
 RTBSE|            2016           0.065                               0.500E+002
 RTBSE|            2017           0.064                               0.500E+002
 RTBSE|            2018           0.062                               0.500E+002
 RTBSE|            2019           0.062                               0.500E+002
 RTBSE|            2020           0.063                               0.500E+002
 RTBSE|            2021           0.062                               0.500E+002
 RTBSE|            2022           0.062                               0.500E+002
 RTBSE|            2023           0.062                               0.500E+002
 RTBSE|            2024           0.062                               0.500E+002
 RTBSE|            2025           0.062                               0.500E+002
 RTBSE|            2026           0.062                               0.500E+002
 RTBSE|            2027           0.067                               0.500E+002
 RTBSE|            2028           0.062                               0.500E+002
 RTBSE|            2029           0.062                               0.500E+002
 RTBSE|            2030           0.062                               0.500E+002
 RTBSE|            2031           0.062                               0.500E+002
 RTBSE|            2032           0.066                               0.500E+002
 RTBSE|            2033           0.062                               0.500E+002
 RTBSE|            2034           0.062                               0.500E+002
 RTBSE|            2035           0.062                               0.500E+002
 RTBSE|            2036           0.062                               0.500E+002
 RTBSE|            2037           0.062                               0.500E+002
 RTBSE|            2038           0.062                               0.500E+002
 RTBSE|            2039           0.062                               0.500E+002
 RTBSE|            2040           0.062                               0.500E+002
 RTBSE|            2041           0.203                               0.500E+002
 RTBSE|            2042           0.093                               0.500E+002
 RTBSE|            2043           0.062                               0.500E+002
 RTBSE|            2044           0.062                               0.500E+002
 RTBSE|            2045           0.062                               0.500E+002
 RTBSE|            2046           0.062                               0.500E+002
 RTBSE|            2047           0.062                               0.500E+002
 RTBSE|            2048           0.062                               0.500E+002
 RTBSE|            2049           0.062                               0.500E+002
 RTBSE|            2050           0.062                               0.500E+002
 RTBSE|            2051           0.062                               0.500E+002
 RTBSE|            2052           0.062                               0.500E+002
 RTBSE|            2053           0.062                               0.500E+002
 RTBSE|            2054           0.062                               0.500E+002
 RTBSE|            2055           0.062                               0.500E+002
 RTBSE|            2056           0.062                               0.500E+002
 RTBSE|            2057           0.062                               0.500E+002
 RTBSE|            2058           0.062                               0.500E+002
 RTBSE|            2059           0.062                               0.500E+002
 RTBSE|            2060           0.062                               0.500E+002
 RTBSE|            2061           0.062                               0.500E+002
 RTBSE|            2062           0.062                               0.500E+002
 RTBSE|            2063           0.064                               0.500E+002
 RTBSE|            2064           0.062                               0.500E+002
 RTBSE|            2065           0.062                               0.500E+002
 RTBSE|            2066           0.062                               0.500E+002
 RTBSE|            2067           0.062                               0.500E+002
 RTBSE|            2068           0.062                               0.500E+002
 RTBSE|            2069           0.062                               0.500E+002
 RTBSE|            2070           0.063                               0.500E+002
 RTBSE|            2071           0.062                               0.500E+002
 RTBSE|            2072           0.062                               0.500E+002
 RTBSE|            2073           0.064                               0.500E+002
 RTBSE|            2074           0.062                               0.500E+002
 RTBSE|            2075           0.062                               0.500E+002
 RTBSE|            2076           0.062                               0.500E+002
 RTBSE|            2077           0.062                               0.500E+002
 RTBSE|            2078           0.062                               0.500E+002
 RTBSE|            2079           0.062                               0.500E+002
 RTBSE|            2080           0.062                               0.500E+002
 RTBSE|            2081           0.062                               0.500E+002
 RTBSE|            2082           0.062                               0.500E+002
 RTBSE|            2083           0.062                               0.500E+002
 RTBSE|            2084           0.062                               0.500E+002
 RTBSE|            2085           0.062                               0.500E+002
 RTBSE|            2086           0.062                               0.500E+002
 RTBSE|            2087           0.062                               0.500E+002
 RTBSE|            2088           0.062                               0.500E+002
 RTBSE|            2089           0.062                               0.500E+002
 RTBSE|            2090           0.062                               0.500E+002
 RTBSE|            2091           0.062                               0.500E+002
 RTBSE|            2092           0.062                               0.500E+002
 RTBSE|            2093           0.063                               0.500E+002
 RTBSE|            2094           0.063                               0.500E+002
 RTBSE|            2095           0.069                               0.500E+002
 RTBSE|            2096           0.063                               0.500E+002
 RTBSE|            2097           0.062                               0.500E+002
 RTBSE|            2098           0.062                               0.500E+002
 RTBSE|            2099           0.062                               0.500E+002
 RTBSE|            2100           0.062                               0.500E+002
 RTBSE|            2101           0.062                               0.500E+002
 RTBSE|            2102           0.062                               0.500E+002
 RTBSE|            2103           0.062                               0.500E+002
 RTBSE|            2104           0.062                               0.500E+002
 RTBSE|            2105           0.064                               0.500E+002
 RTBSE|            2106           0.063                               0.500E+002
 RTBSE|            2107           0.063                               0.500E+002
 RTBSE|            2108           0.062                               0.500E+002
 RTBSE|            2109           0.062                               0.500E+002
 RTBSE|            2110           0.062                               0.500E+002
 RTBSE|            2111           0.062                               0.500E+002
 RTBSE|            2112           0.062                               0.500E+002
 RTBSE|            2113           0.062                               0.500E+002
 RTBSE|            2114           0.062                               0.500E+002
 RTBSE|            2115           0.062                               0.500E+002
 RTBSE|            2116           0.062                               0.500E+002
 RTBSE|            2117           0.062                               0.500E+002
 RTBSE|            2118           0.062                               0.500E+002
 RTBSE|            2119           0.062                               0.500E+002
 RTBSE|            2120           0.062                               0.500E+002
 RTBSE|            2121           0.062                               0.500E+002
 RTBSE|            2122           0.062                               0.500E+002
 RTBSE|            2123           0.062                               0.500E+002
 RTBSE|            2124           0.062                               0.500E+002
 RTBSE|            2125           0.062                               0.500E+002
 RTBSE|            2126           0.062                               0.500E+002
 RTBSE|            2127           0.064                               0.500E+002
 RTBSE|            2128           0.062                               0.500E+002
 RTBSE|            2129           0.062                               0.500E+002
 RTBSE|            2130           0.062                               0.500E+002
 RTBSE|            2131           0.062                               0.500E+002
 RTBSE|            2132           0.062                               0.500E+002
 RTBSE|            2133           0.062                               0.500E+002
 RTBSE|            2134           0.062                               0.500E+002
 RTBSE|            2135           0.062                               0.500E+002
 RTBSE|            2136           0.062                               0.500E+002
 RTBSE|            2137           0.062                               0.500E+002
 RTBSE|            2138           0.064                               0.500E+002
 RTBSE|            2139           0.062                               0.500E+002
 RTBSE|            2140           0.062                               0.500E+002
 RTBSE|            2141           0.062                               0.500E+002
 RTBSE|            2142           0.062                               0.500E+002
 RTBSE|            2143           0.062                               0.500E+002
 RTBSE|            2144           0.062                               0.500E+002
 RTBSE|            2145           0.062                               0.500E+002
 RTBSE|            2146           0.062                               0.500E+002
 RTBSE|            2147           0.062                               0.500E+002
 RTBSE|            2148           0.062                               0.500E+002
 RTBSE|            2149           0.062                               0.500E+002
 RTBSE|            2150           0.062                               0.500E+002
 RTBSE|            2151           0.062                               0.500E+002
 RTBSE|            2152           0.062                               0.500E+002
 RTBSE|            2153           0.062                               0.500E+002
 RTBSE|            2154           0.062                               0.500E+002
 RTBSE|            2155           0.062                               0.500E+002
 RTBSE|            2156           0.062                               0.500E+002
 RTBSE|            2157           0.062                               0.500E+002
 RTBSE|            2158           0.062                               0.500E+002
 RTBSE|            2159           0.062                               0.500E+002
 RTBSE|            2160           0.062                               0.500E+002
 RTBSE|            2161           0.062                               0.500E+002
 RTBSE|            2162           0.062                               0.500E+002
 RTBSE|            2163           0.062                               0.500E+002
 RTBSE|            2164           0.062                               0.500E+002
 RTBSE|            2165           0.062                               0.500E+002
 RTBSE|            2166           0.062                               0.500E+002
 RTBSE|            2167           0.062                               0.500E+002
 RTBSE|            2168           0.062                               0.500E+002
 RTBSE|            2169           0.062                               0.500E+002
 RTBSE|            2170           0.062                               0.500E+002
 RTBSE|            2171           0.063                               0.500E+002
 RTBSE|            2172           0.062                               0.500E+002
 RTBSE|            2173           0.062                               0.500E+002
 RTBSE|            2174           0.062                               0.500E+002
 RTBSE|            2175           0.062                               0.500E+002
 RTBSE|            2176           0.065                               0.500E+002
 RTBSE|            2177           0.062                               0.500E+002
 RTBSE|            2178           0.062                               0.500E+002
 RTBSE|            2179           0.062                               0.500E+002
 RTBSE|            2180           0.062                               0.500E+002
 RTBSE|            2181           0.062                               0.500E+002
 RTBSE|            2182           0.062                               0.500E+002
 RTBSE|            2183           0.067                               0.500E+002
 RTBSE|            2184           0.062                               0.500E+002
 RTBSE|            2185           0.062                               0.500E+002
 RTBSE|            2186           0.062                               0.500E+002
 RTBSE|            2187           0.062                               0.500E+002
 RTBSE|            2188           0.062                               0.500E+002
 RTBSE|            2189           0.062                               0.500E+002
 RTBSE|            2190           0.062                               0.500E+002
 RTBSE|            2191           0.062                               0.500E+002
 RTBSE|            2192           0.062                               0.500E+002
 RTBSE|            2193           0.062                               0.500E+002
 RTBSE|            2194           0.062                               0.500E+002
 RTBSE|            2195           0.062                               0.500E+002
 RTBSE|            2196           0.062                               0.500E+002
 RTBSE|            2197           0.062                               0.500E+002
 RTBSE|            2198           0.062                               0.500E+002
 RTBSE|            2199           0.062                               0.500E+002
 RTBSE|            2200           0.062                               0.500E+002
 RTBSE|            2201           0.062                               0.500E+002
 RTBSE|            2202           0.062                               0.500E+002
 RTBSE|            2203           0.063                               0.500E+002
 RTBSE|            2204           0.062                               0.500E+002
 RTBSE|            2205           0.062                               0.500E+002
 RTBSE|            2206           0.062                               0.500E+002
 RTBSE|            2207           0.062                               0.500E+002
 RTBSE|            2208           0.062                               0.500E+002
 RTBSE|            2209           0.062                               0.500E+002
 RTBSE|            2210           0.062                               0.500E+002
 RTBSE|            2211           0.062                               0.500E+002
 RTBSE|            2212           0.062                               0.500E+002
 RTBSE|            2213           0.062                               0.500E+002
 RTBSE|            2214           0.062                               0.500E+002
 RTBSE|            2215           0.062                               0.500E+002
 RTBSE|            2216           0.062                               0.500E+002
 RTBSE|            2217           0.062                               0.500E+002
 RTBSE|            2218           0.062                               0.500E+002
 RTBSE|            2219           0.062                               0.500E+002
 RTBSE|            2220           0.062                               0.500E+002
 RTBSE|            2221           0.062                               0.500E+002
 RTBSE|            2222           0.064                               0.500E+002
 RTBSE|            2223           0.062                               0.500E+002
 RTBSE|            2224           0.062                               0.500E+002
 RTBSE|            2225           0.062                               0.500E+002
 RTBSE|            2226           0.062                               0.500E+002
 RTBSE|            2227           0.062                               0.500E+002
 RTBSE|            2228           0.062                               0.500E+002
 RTBSE|            2229           0.062                               0.500E+002
 RTBSE|            2230           0.062                               0.500E+002
 RTBSE|            2231           0.062                               0.500E+002
 RTBSE|            2232           0.062                               0.500E+002
 RTBSE|            2233           0.062                               0.500E+002
 RTBSE|            2234           0.062                               0.500E+002
 RTBSE|            2235           0.062                               0.500E+002
 RTBSE|            2236           0.064                               0.500E+002
 RTBSE|            2237           0.062                               0.500E+002
 RTBSE|            2238           0.062                               0.500E+002
 RTBSE|            2239           0.062                               0.500E+002
 RTBSE|            2240           0.062                               0.500E+002
 RTBSE|            2241           0.062                               0.500E+002
 RTBSE|            2242           0.062                               0.500E+002
 RTBSE|            2243           0.062                               0.500E+002
 RTBSE|            2244           0.062                               0.500E+002
 RTBSE|            2245           0.062                               0.500E+002
 RTBSE|            2246           0.062                               0.500E+002
 RTBSE|            2247           0.062                               0.500E+002
 RTBSE|            2248           0.062                               0.500E+002
 RTBSE|            2249           0.062                               0.500E+002
 RTBSE|            2250           0.062                               0.500E+002
 RTBSE|            2251           0.062                               0.500E+002
 RTBSE|            2252           0.063                               0.500E+002
 RTBSE|            2253           0.064                               0.500E+002
 RTBSE|            2254           0.069                               0.500E+002
 RTBSE|            2255           0.062                               0.500E+002
 RTBSE|            2256           0.063                               0.500E+002
 RTBSE|            2257           0.062                               0.500E+002
 RTBSE|            2258           0.062                               0.500E+002
 RTBSE|            2259           0.062                               0.500E+002
 RTBSE|            2260           0.062                               0.500E+002
 RTBSE|            2261           0.062                               0.500E+002
 RTBSE|            2262           0.062                               0.500E+002
 RTBSE|            2263           0.062                               0.500E+002
 RTBSE|            2264           0.062                               0.500E+002
 RTBSE|            2265           0.063                               0.500E+002
 RTBSE|            2266           0.065                               0.500E+002
 RTBSE|            2267           0.062                               0.500E+002
 RTBSE|            2268           0.063                               0.500E+002
 RTBSE|            2269           0.062                               0.500E+002
 RTBSE|            2270           0.062                               0.500E+002
 RTBSE|            2271           0.062                               0.500E+002
 RTBSE|            2272           0.062                               0.500E+002
 RTBSE|            2273           0.062                               0.500E+002
 RTBSE|            2274           0.062                               0.500E+002
 RTBSE|            2275           0.062                               0.500E+002
 RTBSE|            2276           0.062                               0.500E+002
 RTBSE|            2277           0.062                               0.500E+002
 RTBSE|            2278           0.062                               0.500E+002
 RTBSE|            2279           0.062                               0.500E+002
 RTBSE|            2280           0.062                               0.500E+002
 RTBSE|            2281           0.062                               0.500E+002
 RTBSE|            2282           0.062                               0.500E+002
 RTBSE|            2283           0.062                               0.500E+002
 RTBSE|            2284           0.063                               0.500E+002
 RTBSE|            2285           0.062                               0.500E+002
 RTBSE|            2286           0.062                               0.500E+002
 RTBSE|            2287           0.062                               0.500E+002
 RTBSE|            2288           0.062                               0.500E+002
 RTBSE|            2289           0.062                               0.500E+002
 RTBSE|            2290           0.062                               0.500E+002
 RTBSE|            2291           0.062                               0.500E+002
 RTBSE|            2292           0.062                               0.500E+002
 RTBSE|            2293           0.062                               0.500E+002
 RTBSE|            2294           0.062                               0.500E+002
 RTBSE|            2295           0.062                               0.500E+002
 RTBSE|            2296           0.062                               0.500E+002
 RTBSE|            2297           0.062                               0.500E+002
 RTBSE|            2298           0.062                               0.500E+002
 RTBSE|            2299           0.062                               0.500E+002
 RTBSE|            2300           0.062                               0.500E+002
 RTBSE|            2301           0.064                               0.500E+002
 RTBSE|            2302           0.062                               0.500E+002
 RTBSE|            2303           0.062                               0.500E+002
 RTBSE|            2304           0.062                               0.500E+002
 RTBSE|            2305           0.062                               0.500E+002
 RTBSE|            2306           0.062                               0.500E+002
 RTBSE|            2307           0.062                               0.500E+002
 RTBSE|            2308           0.062                               0.500E+002
 RTBSE|            2309           0.062                               0.500E+002
 RTBSE|            2310           0.062                               0.500E+002
 RTBSE|            2311           0.062                               0.500E+002
 RTBSE|            2312           0.062                               0.500E+002
 RTBSE|            2313           0.062                               0.500E+002
 RTBSE|            2314           0.062                               0.500E+002
 RTBSE|            2315           0.062                               0.500E+002
 RTBSE|            2316           0.062                               0.500E+002
 RTBSE|            2317           0.062                               0.500E+002
 RTBSE|            2318           0.062                               0.500E+002
 RTBSE|            2319           0.062                               0.500E+002
 RTBSE|            2320           0.062                               0.500E+002
 RTBSE|            2321           0.062                               0.500E+002
 RTBSE|            2322           0.062                               0.500E+002
 RTBSE|            2323           0.062                               0.500E+002
 RTBSE|            2324           0.062                               0.500E+002
 RTBSE|            2325           0.062                               0.500E+002
 RTBSE|            2326           0.062                               0.500E+002
 RTBSE|            2327           0.062                               0.500E+002
 RTBSE|            2328           0.062                               0.500E+002
 RTBSE|            2329           0.062                               0.500E+002
 RTBSE|            2330           0.062                               0.500E+002
 RTBSE|            2331           0.062                               0.500E+002
 RTBSE|            2332           0.062                               0.500E+002
 RTBSE|            2333           0.062                               0.500E+002
 RTBSE|            2334           0.063                               0.500E+002
 RTBSE|            2335           0.063                               0.500E+002
 RTBSE|            2336           0.062                               0.500E+002
 RTBSE|            2337           0.062                               0.500E+002
 RTBSE|            2338           0.062                               0.500E+002
 RTBSE|            2339           0.065                               0.500E+002
 RTBSE|            2340           0.062                               0.500E+002
 RTBSE|            2341           0.062                               0.500E+002
 RTBSE|            2342           0.067                               0.500E+002
 RTBSE|            2343           0.062                               0.500E+002
 RTBSE|            2344           0.062                               0.500E+002
 RTBSE|            2345           0.062                               0.500E+002
 RTBSE|            2346           0.062                               0.500E+002
 RTBSE|            2347           0.062                               0.500E+002
 RTBSE|            2348           0.062                               0.500E+002
 RTBSE|            2349           0.062                               0.500E+002
 RTBSE|            2350           0.062                               0.500E+002
 RTBSE|            2351           0.062                               0.500E+002
 RTBSE|            2352           0.062                               0.500E+002
 RTBSE|            2353           0.062                               0.500E+002
 RTBSE|            2354           0.062                               0.500E+002
 RTBSE|            2355           0.062                               0.500E+002
 RTBSE|            2356           0.062                               0.500E+002
 RTBSE|            2357           0.062                               0.500E+002
 RTBSE|            2358           0.062                               0.500E+002
 RTBSE|            2359           0.062                               0.500E+002
 RTBSE|            2360           0.062                               0.500E+002
 RTBSE|            2361           0.062                               0.500E+002
 RTBSE|            2362           0.062                               0.500E+002
 RTBSE|            2363           0.062                               0.500E+002
 RTBSE|            2364           0.062                               0.500E+002
 RTBSE|            2365           0.062                               0.500E+002
 RTBSE|            2366           0.063                               0.500E+002
 RTBSE|            2367           0.062                               0.500E+002
 RTBSE|            2368           0.062                               0.500E+002
 RTBSE|            2369           0.062                               0.500E+002
 RTBSE|            2370           0.062                               0.500E+002
 RTBSE|            2371           0.062                               0.500E+002
 RTBSE|            2372           0.062                               0.500E+002
 RTBSE|            2373           0.062                               0.500E+002
 RTBSE|            2374           0.062                               0.500E+002
 RTBSE|            2375           0.062                               0.500E+002
 RTBSE|            2376           0.062                               0.500E+002
 RTBSE|            2377           0.062                               0.500E+002
 RTBSE|            2378           0.062                               0.500E+002
 RTBSE|            2379           0.062                               0.500E+002
 RTBSE|            2380           0.062                               0.500E+002
 RTBSE|            2381           0.064                               0.500E+002
 RTBSE|            2382           0.062                               0.500E+002
 RTBSE|            2383           0.062                               0.500E+002
 RTBSE|            2384           0.062                               0.500E+002
 RTBSE|            2385           0.062                               0.500E+002
 RTBSE|            2386           0.062                               0.500E+002
 RTBSE|            2387           0.062                               0.500E+002
 RTBSE|            2388           0.062                               0.500E+002
 RTBSE|            2389           0.062                               0.500E+002
 RTBSE|            2390           0.062                               0.500E+002
 RTBSE|            2391           0.062                               0.500E+002
 RTBSE|            2392           0.065                               0.500E+002
 RTBSE|            2393           0.062                               0.500E+002
 RTBSE|            2394           0.062                               0.500E+002
 RTBSE|            2395           0.062                               0.500E+002
 RTBSE|            2396           0.062                               0.500E+002
 RTBSE|            2397           0.062                               0.500E+002
 RTBSE|            2398           0.062                               0.500E+002
 RTBSE|            2399           0.064                               0.500E+002
 RTBSE|            2400           0.062                               0.500E+002
 RTBSE|            2401           0.062                               0.500E+002
 RTBSE|            2402           0.062                               0.500E+002
 RTBSE|            2403           0.062                               0.500E+002
 RTBSE|            2404           0.062                               0.500E+002
 RTBSE|            2405           0.062                               0.500E+002
 RTBSE|            2406           0.062                               0.500E+002
 RTBSE|            2407           0.062                               0.500E+002
 RTBSE|            2408           0.062                               0.500E+002
 RTBSE|            2409           0.062                               0.500E+002
 RTBSE|            2410           0.062                               0.500E+002
 RTBSE|            2411           0.063                               0.500E+002
 RTBSE|            2412           0.062                               0.500E+002
 RTBSE|            2413           0.062                               0.500E+002
 RTBSE|            2414           0.069                               0.500E+002
 RTBSE|            2415           0.063                               0.500E+002
 RTBSE|            2416           0.062                               0.500E+002
 RTBSE|            2417           0.062                               0.500E+002
 RTBSE|            2418           0.062                               0.500E+002
 RTBSE|            2419           0.062                               0.500E+002
 RTBSE|            2420           0.062                               0.500E+002
 RTBSE|            2421           0.062                               0.500E+002
 RTBSE|            2422           0.062                               0.500E+002
 RTBSE|            2423           0.062                               0.500E+002
 RTBSE|            2424           0.062                               0.500E+002
 RTBSE|            2425           0.065                               0.500E+002
 RTBSE|            2426           0.062                               0.500E+002
 RTBSE|            2427           0.062                               0.500E+002
 RTBSE|            2428           0.062                               0.500E+002
 RTBSE|            2429           0.062                               0.500E+002
 RTBSE|            2430           0.062                               0.500E+002
 RTBSE|            2431           0.064                               0.500E+002
 RTBSE|            2432           0.062                               0.500E+002
 RTBSE|            2433           0.062                               0.500E+002
 RTBSE|            2434           0.062                               0.500E+002
 RTBSE|            2435           0.062                               0.500E+002
 RTBSE|            2436           0.062                               0.500E+002
 RTBSE|            2437           0.062                               0.500E+002
 RTBSE|            2438           0.062                               0.500E+002
 RTBSE|            2439           0.062                               0.500E+002
 RTBSE|            2440           0.062                               0.500E+002
 RTBSE|            2441           0.062                               0.500E+002
 RTBSE|            2442           0.062                               0.500E+002
 RTBSE|            2443           0.062                               0.500E+002
 RTBSE|            2444           0.062                               0.500E+002
 RTBSE|            2445           0.062                               0.500E+002
 RTBSE|            2446           0.062                               0.500E+002
 RTBSE|            2447           0.062                               0.500E+002
 RTBSE|            2448           0.062                               0.500E+002
 RTBSE|            2449           0.062                               0.500E+002
 RTBSE|            2450           0.062                               0.500E+002
 RTBSE|            2451           0.062                               0.500E+002
 RTBSE|            2452           0.062                               0.500E+002
 RTBSE|            2453           0.062                               0.500E+002
 RTBSE|            2454           0.062                               0.500E+002
 RTBSE|            2455           0.062                               0.500E+002
 RTBSE|            2456           0.062                               0.500E+002
 RTBSE|            2457           0.062                               0.500E+002
 RTBSE|            2458           0.062                               0.500E+002
 RTBSE|            2459           0.062                               0.500E+002
 RTBSE|            2460           0.062                               0.500E+002
 RTBSE|            2461           0.063                               0.500E+002
 RTBSE|            2462           0.062                               0.500E+002
 RTBSE|            2463           0.062                               0.500E+002
 RTBSE|            2464           0.063                               0.500E+002
 RTBSE|            2465           0.062                               0.500E+002
 RTBSE|            2466           0.062                               0.500E+002
 RTBSE|            2467           0.062                               0.500E+002
 RTBSE|            2468           0.062                               0.500E+002
 RTBSE|            2469           0.062                               0.500E+002
 RTBSE|            2470           0.062                               0.500E+002
 RTBSE|            2471           0.062                               0.500E+002
 RTBSE|            2472           0.062                               0.500E+002
 RTBSE|            2473           0.081                               0.500E+002
 RTBSE|            2474           0.062                               0.500E+002
 RTBSE|            2475           0.062                               0.500E+002
 RTBSE|            2476           0.062                               0.500E+002
 RTBSE|            2477           0.062                               0.500E+002
 RTBSE|            2478           0.062                               0.500E+002
 RTBSE|            2479           0.062                               0.500E+002
 RTBSE|            2480           0.062                               0.500E+002
 RTBSE|            2481           0.062                               0.500E+002
 RTBSE|            2482           0.062                               0.500E+002
 RTBSE|            2483           0.062                               0.500E+002
 RTBSE|            2484           0.062                               0.500E+002
 RTBSE|            2485           0.062                               0.500E+002
 RTBSE|            2486           0.062                               0.500E+002
 RTBSE|            2487           0.062                               0.500E+002
 RTBSE|            2488           0.078                               0.500E+002
 RTBSE|            2489           0.097                               0.500E+002
 RTBSE|            2490           0.062                               0.500E+002
 RTBSE|            2491           0.064                               0.500E+002
 RTBSE|            2492           0.062                               0.500E+002
 RTBSE|            2493           0.063                               0.500E+002
 RTBSE|            2494           0.062                               0.500E+002
 RTBSE|            2495           0.063                               0.500E+002
 RTBSE|            2496           0.062                               0.500E+002
 RTBSE|            2497           0.062                               0.500E+002
 RTBSE|            2498           0.062                               0.500E+002
 RTBSE|            2499           0.062                               0.500E+002
 RTBSE|            2500           0.069                               0.500E+002
 RTBSE|            2501           0.062                               0.500E+002
 RTBSE|            2502           0.062                               0.500E+002
 RTBSE|            2503           0.062                               0.500E+002
 RTBSE|            2504           0.062                               0.500E+002
 RTBSE|            2505           0.107                               0.500E+002
 RTBSE|            2506           0.062                               0.500E+002
 RTBSE|            2507           0.062                               0.500E+002
 RTBSE|            2508           0.062                               0.500E+002
 RTBSE|            2509           0.062                               0.500E+002
 RTBSE|            2510           0.062                               0.500E+002
 RTBSE|            2511           0.062                               0.500E+002
 RTBSE|            2512           0.062                               0.500E+002
 RTBSE|            2513           0.062                               0.500E+002
 RTBSE|            2514           0.107                               0.500E+002
 RTBSE|            2515           0.063                               0.500E+002
 RTBSE|            2516           0.062                               0.500E+002
 RTBSE|            2517           0.113                               0.500E+002
 RTBSE|            2518           0.062                               0.500E+002
 RTBSE|            2519           0.126                               0.500E+002
 RTBSE|            2520           0.062                               0.500E+002
 RTBSE|            2521           0.062                               0.500E+002
 RTBSE|            2522           0.062                               0.500E+002
 RTBSE|            2523           0.062                               0.500E+002
 RTBSE|            2524           0.063                               0.500E+002
 RTBSE|            2525           0.062                               0.500E+002
 RTBSE|            2526           0.062                               0.500E+002
 RTBSE|            2527           0.062                               0.500E+002
 RTBSE|            2528           0.062                               0.500E+002
 RTBSE|            2529           0.062                               0.500E+002
 RTBSE|            2530           0.062                               0.500E+002
 RTBSE|            2531           0.062                               0.500E+002
 RTBSE|            2532           0.062                               0.500E+002
 RTBSE|            2533           0.062                               0.500E+002
 RTBSE|            2534           0.065                               0.500E+002
 RTBSE|            2535           0.064                               0.500E+002
 RTBSE|            2536           0.062                               0.500E+002
 RTBSE|            2537           0.062                               0.500E+002
 RTBSE|            2538           0.062                               0.500E+002
 RTBSE|            2539           0.062                               0.500E+002
 RTBSE|            2540           0.062                               0.500E+002
 RTBSE|            2541           0.062                               0.500E+002
 RTBSE|            2542           0.062                               0.500E+002
 RTBSE|            2543           0.063                               0.500E+002
 RTBSE|            2544           0.062                               0.500E+002
 RTBSE|            2545           0.062                               0.500E+002
 RTBSE|            2546           0.062                               0.500E+002
 RTBSE|            2547           0.063                               0.500E+002
 RTBSE|            2548           0.062                               0.500E+002
 RTBSE|            2549           0.062                               0.500E+002
 RTBSE|            2550           0.065                               0.500E+002
 RTBSE|            2551           0.062                               0.500E+002
 RTBSE|            2552           0.062                               0.500E+002
 RTBSE|            2553           0.062                               0.500E+002
 RTBSE|            2554           0.062                               0.500E+002
 RTBSE|            2555           0.062                               0.500E+002
 RTBSE|            2556           0.062                               0.500E+002
 RTBSE|            2557           0.064                               0.500E+002
 RTBSE|            2558           0.062                               0.500E+002
 RTBSE|            2559           0.062                               0.500E+002
 RTBSE|            2560           0.062                               0.500E+002
 RTBSE|            2561           0.062                               0.500E+002
 RTBSE|            2562           0.062                               0.500E+002
 RTBSE|            2563           0.062                               0.500E+002
 RTBSE|            2564           0.062                               0.500E+002
 RTBSE|            2565           0.064                               0.500E+002
 RTBSE|            2566           0.063                               0.500E+002
 RTBSE|            2567           0.062                               0.500E+002
 RTBSE|            2568           0.093                               0.500E+002
 RTBSE|            2569           0.063                               0.500E+002
 RTBSE|            2570           0.064                               0.500E+002
 RTBSE|            2571           0.062                               0.500E+002
 RTBSE|            2572           0.062                               0.500E+002
 RTBSE|            2573           0.062                               0.500E+002
 RTBSE|            2574           0.062                               0.500E+002
 RTBSE|            2575           0.062                               0.500E+002
 RTBSE|            2576           0.062                               0.500E+002
 RTBSE|            2577           0.062                               0.500E+002
 RTBSE|            2578           0.063                               0.500E+002
 RTBSE|            2579           0.065                               0.500E+002
 RTBSE|            2580           0.062                               0.500E+002
 RTBSE|            2581           0.137                               0.500E+002
 RTBSE|            2582           0.070                               0.500E+002
 RTBSE|            2583           0.062                               0.500E+002
 RTBSE|            2584           0.062                               0.500E+002
 RTBSE|            2585           0.062                               0.500E+002
 RTBSE|            2586           0.062                               0.500E+002
 RTBSE|            2587           0.062                               0.500E+002
 RTBSE|            2588           0.064                               0.500E+002
 RTBSE|            2589           0.062                               0.500E+002
 RTBSE|            2590           0.062                               0.500E+002
 RTBSE|            2591           0.062                               0.500E+002
 RTBSE|            2592           0.062                               0.500E+002
 RTBSE|            2593           0.062                               0.500E+002
 RTBSE|            2594           0.062                               0.500E+002
 RTBSE|            2595           0.062                               0.500E+002
 RTBSE|            2596           0.062                               0.500E+002
 RTBSE|            2597           0.062                               0.500E+002
 RTBSE|            2598           0.062                               0.500E+002
 RTBSE|            2599           0.062                               0.500E+002
 RTBSE|            2600           0.063                               0.500E+002
 RTBSE|            2601           0.064                               0.500E+002
 RTBSE|            2602           0.062                               0.500E+002
 RTBSE|            2603           0.062                               0.500E+002
 RTBSE|            2604           0.062                               0.500E+002
 RTBSE|            2605           0.062                               0.500E+002
 RTBSE|            2606           0.062                               0.500E+002
 RTBSE|            2607           0.062                               0.500E+002
 RTBSE|            2608           0.062                               0.500E+002
 RTBSE|            2609           0.062                               0.500E+002
 RTBSE|            2610           0.062                               0.500E+002
 RTBSE|            2611           0.062                               0.500E+002
 RTBSE|            2612           0.062                               0.500E+002
 RTBSE|            2613           0.062                               0.500E+002
 RTBSE|            2614           0.062                               0.500E+002
 RTBSE|            2615           0.062                               0.500E+002
 RTBSE|            2616           0.062                               0.500E+002
 RTBSE|            2617           0.062                               0.500E+002
 RTBSE|            2618           0.062                               0.500E+002
 RTBSE|            2619           0.062                               0.500E+002
 RTBSE|            2620           0.064                               0.500E+002
 RTBSE|            2621           0.062                               0.500E+002
 RTBSE|            2622           0.062                               0.500E+002
 RTBSE|            2623           0.062                               0.500E+002
 RTBSE|            2624           0.062                               0.500E+002
 RTBSE|            2625           0.062                               0.500E+002
 RTBSE|            2626           0.062                               0.500E+002
 RTBSE|            2627           0.062                               0.500E+002
 RTBSE|            2628           0.062                               0.500E+002
 RTBSE|            2629           0.062                               0.500E+002
 RTBSE|            2630           0.062                               0.500E+002
 RTBSE|            2631           0.062                               0.500E+002
 RTBSE|            2632           0.062                               0.500E+002
 RTBSE|            2633           0.062                               0.500E+002
 RTBSE|            2634           0.062                               0.500E+002
 RTBSE|            2635           0.062                               0.500E+002
 RTBSE|            2636           0.062                               0.500E+002
 RTBSE|            2637           0.062                               0.500E+002
 RTBSE|            2638           0.062                               0.500E+002
 RTBSE|            2639           0.062                               0.500E+002
 RTBSE|            2640           0.062                               0.500E+002
 RTBSE|            2641           0.062                               0.500E+002
 RTBSE|            2642           0.062                               0.500E+002
 RTBSE|            2643           0.062                               0.500E+002
 RTBSE|            2644           0.062                               0.500E+002
 RTBSE|            2645           0.062                               0.500E+002
 RTBSE|            2646           0.062                               0.500E+002
 RTBSE|            2647           0.063                               0.500E+002
 RTBSE|            2648           0.062                               0.500E+002
 RTBSE|            2649           0.062                               0.500E+002
 RTBSE|            2650           0.064                               0.500E+002
 RTBSE|            2651           0.062                               0.500E+002
 RTBSE|            2652           0.062                               0.500E+002
 RTBSE|            2653           0.063                               0.500E+002
 RTBSE|            2654           0.067                               0.500E+002
 RTBSE|            2655           0.062                               0.500E+002
 RTBSE|            2656           0.062                               0.500E+002
 RTBSE|            2657           0.062                               0.500E+002
 RTBSE|            2658           0.065                               0.500E+002
 RTBSE|            2659           0.062                               0.500E+002
 RTBSE|            2660           0.062                               0.500E+002
 RTBSE|            2661           0.062                               0.500E+002
 RTBSE|            2662           0.062                               0.500E+002
 RTBSE|            2663           0.062                               0.500E+002
 RTBSE|            2664           0.062                               0.500E+002
 RTBSE|            2665           0.062                               0.500E+002
 RTBSE|            2666           0.064                               0.500E+002
 RTBSE|            2667           0.062                               0.500E+002
 RTBSE|            2668           0.062                               0.500E+002
 RTBSE|            2669           0.062                               0.500E+002
 RTBSE|            2670           0.062                               0.500E+002
 RTBSE|            2671           0.062                               0.500E+002
 RTBSE|            2672           0.062                               0.500E+002
 RTBSE|            2673           0.062                               0.500E+002
 RTBSE|            2674           0.062                               0.500E+002
 RTBSE|            2675           0.062                               0.500E+002
 RTBSE|            2676           0.062                               0.500E+002
 RTBSE|            2677           0.062                               0.500E+002
 RTBSE|            2678           0.062                               0.500E+002
 RTBSE|            2679           0.062                               0.500E+002
 RTBSE|            2680           0.062                               0.500E+002
 RTBSE|            2681           0.062                               0.500E+002
 RTBSE|            2682           0.062                               0.500E+002
 RTBSE|            2683           0.062                               0.500E+002
 RTBSE|            2684           0.062                               0.500E+002
 RTBSE|            2685           0.064                               0.500E+002
 RTBSE|            2686           0.062                               0.500E+002
 RTBSE|            2687           0.062                               0.500E+002
 RTBSE|            2688           0.062                               0.500E+002
 RTBSE|            2689           0.063                               0.500E+002
 RTBSE|            2690           0.062                               0.500E+002
 RTBSE|            2691           0.062                               0.500E+002
 RTBSE|            2692           0.064                               0.500E+002
 RTBSE|            2693           0.062                               0.500E+002
 RTBSE|            2694           0.062                               0.500E+002
 RTBSE|            2695           0.062                               0.500E+002
 RTBSE|            2696           0.062                               0.500E+002
 RTBSE|            2697           0.062                               0.500E+002
 RTBSE|            2698           0.062                               0.500E+002
 RTBSE|            2699           0.062                               0.500E+002
 RTBSE|            2700           0.062                               0.500E+002
 RTBSE|            2701           0.062                               0.500E+002
 RTBSE|            2702           0.062                               0.500E+002
 RTBSE|            2703           0.062                               0.500E+002
 RTBSE|            2704           0.062                               0.500E+002
 RTBSE|            2705           0.062                               0.500E+002
 RTBSE|            2706           0.062                               0.500E+002
 RTBSE|            2707           0.062                               0.500E+002
 RTBSE|            2708           0.062                               0.500E+002
 RTBSE|            2709           0.062                               0.500E+002
 RTBSE|            2710           0.062                               0.500E+002
 RTBSE|            2711           0.062                               0.500E+002
 RTBSE|            2712           0.062                               0.500E+002
 RTBSE|            2713           0.062                               0.500E+002
 RTBSE|            2714           0.062                               0.500E+002
 RTBSE|            2715           0.062                               0.500E+002
 RTBSE|            2716           0.062                               0.500E+002
 RTBSE|            2717           0.062                               0.500E+002
 RTBSE|            2718           0.064                               0.500E+002
 RTBSE|            2719           0.062                               0.500E+002
 RTBSE|            2720           0.062                               0.500E+002
 RTBSE|            2721           0.062                               0.500E+002
 RTBSE|            2722           0.062                               0.500E+002
 RTBSE|            2723           0.063                               0.500E+002
 RTBSE|            2724           0.062                               0.500E+002
 RTBSE|            2725           0.071                               0.500E+002
 RTBSE|            2726           0.063                               0.500E+002
 RTBSE|            2727           0.062                               0.500E+002
 RTBSE|            2728           0.062                               0.500E+002
 RTBSE|            2729           0.062                               0.500E+002
 RTBSE|            2730           0.062                               0.500E+002
 RTBSE|            2731           0.062                               0.500E+002
 RTBSE|            2732           0.062                               0.500E+002
 RTBSE|            2733           0.062                               0.500E+002
 RTBSE|            2734           0.062                               0.500E+002
 RTBSE|            2735           0.063                               0.500E+002
 RTBSE|            2736           0.065                               0.500E+002
 RTBSE|            2737           0.062                               0.500E+002
 RTBSE|            2738           0.062                               0.500E+002
 RTBSE|            2739           0.062                               0.500E+002
 RTBSE|            2740           0.062                               0.500E+002
 RTBSE|            2741           0.062                               0.500E+002
 RTBSE|            2742           0.062                               0.500E+002
 RTBSE|            2743           0.062                               0.500E+002
 RTBSE|            2744           0.062                               0.500E+002
 RTBSE|            2745           0.062                               0.500E+002
 RTBSE|            2746           0.062                               0.500E+002
 RTBSE|            2747           0.062                               0.500E+002
 RTBSE|            2748           0.062                               0.500E+002
 RTBSE|            2749           0.062                               0.500E+002
 RTBSE|            2750           0.064                               0.500E+002
 RTBSE|            2751           0.062                               0.500E+002
 RTBSE|            2752           0.062                               0.500E+002
 RTBSE|            2753           0.062                               0.500E+002
 RTBSE|            2754           0.062                               0.500E+002
 RTBSE|            2755           0.062                               0.500E+002
 RTBSE|            2756           0.062                               0.500E+002
 RTBSE|            2757           0.062                               0.500E+002
 RTBSE|            2758           0.062                               0.500E+002
 RTBSE|            2759           0.062                               0.500E+002
 RTBSE|            2760           0.062                               0.500E+002
 RTBSE|            2761           0.062                               0.500E+002
 RTBSE|            2762           0.062                               0.500E+002
 RTBSE|            2763           0.062                               0.500E+002
 RTBSE|            2764           0.062                               0.500E+002
 RTBSE|            2765           0.062                               0.500E+002
 RTBSE|            2766           0.062                               0.500E+002
 RTBSE|            2767           0.062                               0.500E+002
 RTBSE|            2768           0.062                               0.500E+002
 RTBSE|            2769           0.062                               0.500E+002
 RTBSE|            2770           0.062                               0.500E+002
 RTBSE|            2771           0.062                               0.500E+002
 RTBSE|            2772           0.062                               0.500E+002
 RTBSE|            2773           0.062                               0.500E+002
 RTBSE|            2774           0.062                               0.500E+002
 RTBSE|            2775           0.062                               0.500E+002
 RTBSE|            2776           0.062                               0.500E+002
 RTBSE|            2777           0.062                               0.500E+002
 RTBSE|            2778           0.062                               0.500E+002
 RTBSE|            2779           0.062                               0.500E+002
 RTBSE|            2780           0.062                               0.500E+002
 RTBSE|            2781           0.062                               0.500E+002
 RTBSE|            2782           0.062                               0.500E+002
 RTBSE|            2783           0.064                               0.500E+002
 RTBSE|            2784           0.062                               0.500E+002
 RTBSE|            2785           0.062                               0.500E+002
 RTBSE|            2786           0.062                               0.500E+002
 RTBSE|            2787           0.062                               0.500E+002
 RTBSE|            2788           0.062                               0.500E+002
 RTBSE|            2789           0.062                               0.500E+002
 RTBSE|            2790           0.062                               0.500E+002
 RTBSE|            2791           0.062                               0.500E+002
 RTBSE|            2792           0.062                               0.500E+002
 RTBSE|            2793           0.062                               0.500E+002
 RTBSE|            2794           0.062                               0.500E+002
 RTBSE|            2795           0.062                               0.500E+002
 RTBSE|            2796           0.062                               0.500E+002
 RTBSE|            2797           0.062                               0.500E+002
 RTBSE|            2798           0.062                               0.500E+002
 RTBSE|            2799           0.062                               0.500E+002
 RTBSE|            2800           0.062                               0.500E+002
 RTBSE|            2801           0.062                               0.500E+002
 RTBSE|            2802           0.062                               0.500E+002
 RTBSE|            2803           0.062                               0.500E+002
 RTBSE|            2804           0.064                               0.500E+002
 RTBSE|            2805           0.062                               0.500E+002
 RTBSE|            2806           0.063                               0.500E+002
 RTBSE|            2807           0.062                               0.500E+002
 RTBSE|            2808           0.062                               0.500E+002
 RTBSE|            2809           0.062                               0.500E+002
 RTBSE|            2810           0.062                               0.500E+002
 RTBSE|            2811           0.062                               0.500E+002
 RTBSE|            2812           0.062                               0.500E+002
 RTBSE|            2813           0.067                               0.500E+002
 RTBSE|            2814           0.062                               0.500E+002
 RTBSE|            2815           0.063                               0.500E+002
 RTBSE|            2816           0.062                               0.500E+002
 RTBSE|            2817           0.062                               0.500E+002
 RTBSE|            2818           0.062                               0.500E+002
 RTBSE|            2819           0.062                               0.500E+002
 RTBSE|            2820           0.062                               0.500E+002
 RTBSE|            2821           0.065                               0.500E+002
 RTBSE|            2822           0.062                               0.500E+002
 RTBSE|            2823           0.062                               0.500E+002
 RTBSE|            2824           0.062                               0.500E+002
 RTBSE|            2825           0.062                               0.500E+002
 RTBSE|            2826           0.062                               0.500E+002
 RTBSE|            2827           0.062                               0.500E+002
 RTBSE|            2828           0.062                               0.500E+002
 RTBSE|            2829           0.062                               0.500E+002
 RTBSE|            2830           0.062                               0.500E+002
 RTBSE|            2831           0.062                               0.500E+002
 RTBSE|            2832           0.062                               0.500E+002
 RTBSE|            2833           0.062                               0.500E+002
 RTBSE|            2834           0.062                               0.500E+002
 RTBSE|            2835           0.062                               0.500E+002
 RTBSE|            2836           0.062                               0.500E+002
 RTBSE|            2837           0.062                               0.500E+002
 RTBSE|            2838           0.062                               0.500E+002
 RTBSE|            2839           0.062                               0.500E+002
 RTBSE|            2840           0.062                               0.500E+002
 RTBSE|            2841           0.062                               0.500E+002
 RTBSE|            2842           0.062                               0.500E+002
 RTBSE|            2843           0.062                               0.500E+002
 RTBSE|            2844           0.062                               0.500E+002
 RTBSE|            2845           0.062                               0.500E+002
 RTBSE|            2846           0.062                               0.500E+002
 RTBSE|            2847           0.062                               0.500E+002
 RTBSE|            2848           0.063                               0.500E+002
 RTBSE|            2849           0.062                               0.500E+002
 RTBSE|            2850           0.062                               0.500E+002
 RTBSE|            2851           0.062                               0.500E+002
 RTBSE|            2852           0.062                               0.500E+002
 RTBSE|            2853           0.062                               0.500E+002
 RTBSE|            2854           0.062                               0.500E+002
 RTBSE|            2855           0.062                               0.500E+002
 RTBSE|            2856           0.062                               0.500E+002
 RTBSE|            2857           0.062                               0.500E+002
 RTBSE|            2858           0.062                               0.500E+002
 RTBSE|            2859           0.062                               0.500E+002
 RTBSE|            2860           0.062                               0.500E+002
 RTBSE|            2861           0.062                               0.500E+002
 RTBSE|            2862           0.062                               0.500E+002
 RTBSE|            2863           0.062                               0.500E+002
 RTBSE|            2864           0.062                               0.500E+002
 RTBSE|            2865           0.062                               0.500E+002
 RTBSE|            2866           0.062                               0.500E+002
 RTBSE|            2867           0.062                               0.500E+002
 RTBSE|            2868           0.062                               0.500E+002
 RTBSE|            2869           0.062                               0.500E+002
 RTBSE|            2870           0.062                               0.500E+002
 RTBSE|            2871           0.062                               0.500E+002
 RTBSE|            2872           0.062                               0.500E+002
 RTBSE|            2873           0.062                               0.500E+002
 RTBSE|            2874           0.062                               0.500E+002
 RTBSE|            2875           0.062                               0.500E+002
 RTBSE|            2876           0.062                               0.500E+002
 RTBSE|            2877           0.062                               0.500E+002
 RTBSE|            2878           0.062                               0.500E+002
 RTBSE|            2879           0.062                               0.500E+002
 RTBSE|            2880           0.062                               0.500E+002
 RTBSE|            2881           0.063                               0.500E+002
 RTBSE|            2882           0.063                               0.500E+002
 RTBSE|            2883           0.062                               0.500E+002
 RTBSE|            2884           0.069                               0.500E+002
 RTBSE|            2885           0.063                               0.500E+002
 RTBSE|            2886           0.062                               0.500E+002
 RTBSE|            2887           0.062                               0.500E+002
 RTBSE|            2888           0.062                               0.500E+002
 RTBSE|            2889           0.062                               0.500E+002
 RTBSE|            2890           0.062                               0.500E+002
 RTBSE|            2891           0.062                               0.500E+002
 RTBSE|            2892           0.062                               0.500E+002
 RTBSE|            2893           0.062                               0.500E+002
 RTBSE|            2894           0.063                               0.500E+002
 RTBSE|            2895           0.065                               0.500E+002
 RTBSE|            2896           0.062                               0.500E+002
 RTBSE|            2897           0.062                               0.500E+002
 RTBSE|            2898           0.062                               0.500E+002
 RTBSE|            2899           0.062                               0.500E+002
 RTBSE|            2900           0.062                               0.500E+002
 RTBSE|            2901           0.062                               0.500E+002
 RTBSE|            2902           0.062                               0.500E+002
 RTBSE|            2903           0.062                               0.500E+002
 RTBSE|            2904           0.062                               0.500E+002
 RTBSE|            2905           0.062                               0.500E+002
 RTBSE|            2906           0.062                               0.500E+002
 RTBSE|            2907           0.062                               0.500E+002
 RTBSE|            2908           0.062                               0.500E+002
 RTBSE|            2909           0.062                               0.500E+002
 RTBSE|            2910           0.062                               0.500E+002
 RTBSE|            2911           0.062                               0.500E+002
 RTBSE|            2912           0.062                               0.500E+002
 RTBSE|            2913           0.064                               0.500E+002
 RTBSE|            2914           0.062                               0.500E+002
 RTBSE|            2915           0.062                               0.500E+002
 RTBSE|            2916           0.062                               0.500E+002
 RTBSE|            2917           0.062                               0.500E+002
 RTBSE|            2918           0.062                               0.500E+002
 RTBSE|            2919           0.062                               0.500E+002
 RTBSE|            2920           0.062                               0.500E+002
 RTBSE|            2921           0.062                               0.500E+002
 RTBSE|            2922           0.062                               0.500E+002
 RTBSE|            2923           0.062                               0.500E+002
 RTBSE|            2924           0.062                               0.500E+002
 RTBSE|            2925           0.062                               0.500E+002
 RTBSE|            2926           0.062                               0.500E+002
 RTBSE|            2927           0.062                               0.500E+002
 RTBSE|            2928           0.065                               0.500E+002
 RTBSE|            2929           0.062                               0.500E+002
 RTBSE|            2930           0.062                               0.500E+002
 RTBSE|            2931           0.062                               0.500E+002
 RTBSE|            2932           0.062                               0.500E+002
 RTBSE|            2933           0.062                               0.500E+002
 RTBSE|            2934           0.062                               0.500E+002
 RTBSE|            2935           0.062                               0.500E+002
 RTBSE|            2936           0.062                               0.500E+002
 RTBSE|            2937           0.062                               0.500E+002
 RTBSE|            2938           0.062                               0.500E+002
 RTBSE|            2939           0.062                               0.500E+002
 RTBSE|            2940           0.062                               0.500E+002
 RTBSE|            2941           0.062                               0.500E+002
 RTBSE|            2942           0.062                               0.500E+002
 RTBSE|            2943           0.062                               0.500E+002
 RTBSE|            2944           0.062                               0.500E+002
 RTBSE|            2945           0.062                               0.500E+002
 RTBSE|            2946           0.063                               0.500E+002
 RTBSE|            2947           0.062                               0.500E+002
 RTBSE|            2948           0.062                               0.500E+002
 RTBSE|            2949           0.062                               0.500E+002
 RTBSE|            2950           0.062                               0.500E+002
 RTBSE|            2951           0.062                               0.500E+002
 RTBSE|            2952           0.062                               0.500E+002
 RTBSE|            2953           0.062                               0.500E+002
 RTBSE|            2954           0.062                               0.500E+002
 RTBSE|            2955           0.062                               0.500E+002
 RTBSE|            2956           0.062                               0.500E+002
 RTBSE|            2957           0.062                               0.500E+002
 RTBSE|            2958           0.062                               0.500E+002
 RTBSE|            2959           0.062                               0.500E+002
 RTBSE|            2960           0.062                               0.500E+002
 RTBSE|            2961           0.062                               0.500E+002
 RTBSE|            2962           0.062                               0.500E+002
 RTBSE|            2963           0.062                               0.500E+002
 RTBSE|            2964           0.064                               0.500E+002
 RTBSE|            2965           0.063                               0.500E+002
 RTBSE|            2966           0.062                               0.500E+002
 RTBSE|            2967           0.062                               0.500E+002
 RTBSE|            2968           0.062                               0.500E+002
 RTBSE|            2969           0.062                               0.500E+002
 RTBSE|            2970           0.062                               0.500E+002
 RTBSE|            2971           0.062                               0.500E+002
 RTBSE|            2972           0.067                               0.500E+002
 RTBSE|            2973           0.062                               0.500E+002
 RTBSE|            2974           0.062                               0.500E+002
 RTBSE|            2975           0.062                               0.500E+002
 RTBSE|            2976           0.062                               0.500E+002
 RTBSE|            2977           0.064                               0.500E+002
 RTBSE|            2978           0.063                               0.500E+002
 RTBSE|            2979           0.062                               0.500E+002
 RTBSE|            2980           0.062                               0.500E+002
 RTBSE|            2981           0.062                               0.500E+002
 RTBSE|            2982           0.062                               0.500E+002
 RTBSE|            2983           0.065                               0.500E+002
 RTBSE|            2984           0.062                               0.500E+002
 RTBSE|            2985           0.062                               0.500E+002
 RTBSE|            2986           0.062                               0.500E+002
 RTBSE|            2987           0.196                               0.500E+002
 RTBSE|            2988           0.098                               0.500E+002
 RTBSE|            2989           0.063                               0.500E+002
 RTBSE|            2990           0.067                               0.500E+002
 RTBSE|            2991           0.064                               0.500E+002
 RTBSE|            2992           0.064                               0.500E+002
 RTBSE|            2993           0.064                               0.500E+002
 RTBSE|            2994           0.062                               0.500E+002
 RTBSE|            2995           0.062                               0.500E+002
 RTBSE|            2996           0.062                               0.500E+002
 RTBSE|            2997           0.062                               0.500E+002
 RTBSE|            2998           0.062                               0.500E+002
 RTBSE|            2999           0.062                               0.500E+002
 RTBSE|            3000           0.062                               0.500E+002
 RTBSE|            3001           0.062                               0.500E+002
 RTBSE|            3002           0.062                               0.500E+002
 RTBSE|            3003           0.063                               0.500E+002
 RTBSE|            3004           0.063                               0.500E+002
 RTBSE|            3005           0.062                               0.500E+002
 RTBSE|            3006           0.062                               0.500E+002
 RTBSE|            3007           0.062                               0.500E+002
 RTBSE|            3008           0.066                               0.500E+002
 RTBSE|            3009           0.062                               0.500E+002
 RTBSE|            3010           0.062                               0.500E+002
 RTBSE|            3011           0.062                               0.500E+002
 RTBSE|            3012           0.062                               0.500E+002
 RTBSE|            3013           0.062                               0.500E+002
 RTBSE|            3014           0.062                               0.500E+002
 RTBSE|            3015           0.062                               0.500E+002
 RTBSE|            3016           0.063                               0.500E+002
 RTBSE|            3017           0.062                               0.500E+002
 RTBSE|            3018           0.062                               0.500E+002
 RTBSE|            3019           0.062                               0.500E+002
 RTBSE|            3020           0.062                               0.500E+002
 RTBSE|            3021           0.062                               0.500E+002
 RTBSE|            3022           0.062                               0.500E+002
 RTBSE|            3023           0.062                               0.500E+002
 RTBSE|            3024           0.062                               0.500E+002
 RTBSE|            3025           0.062                               0.500E+002
 RTBSE|            3026           0.062                               0.500E+002
  GREENX FT_PADE| n_pade, n_fit, window [eV]   484     968     0.0000    19.9960
  GREENX FT_PADE| n_pade, n_fit, window [eV]   484     968     0.0000    19.9960
  GREENX FT_PADE| n_pade, n_fit, window [eV]   484     968     0.0000    19.9960
 STATIC_POL|         spin  element Re [a.u.]              Im [a.u.]
 STATIC_POL|            1    1,  2     -3.1289140001E-002     -3.5653766543E-015
 STATIC_POL|            1    2,  2      1.9602110586E+002      5.3307124020E-014
 STATIC_POL|            1    3,  2      2.3792337952E-002      9.7868548006E-016

 -------------------------------------------------------------------------------
 -                                                                             -
 -                                DBCSR STATISTICS                             -
 -                                                                             -
 -------------------------------------------------------------------------------
 COUNTER                                    TOTAL       BLAS       SMM       ACC
 flops     3 x     3 x     5               257040       0.0%    100.0%      0.0%     
 flops     3 x    27 x     5              1982880       0.0%    100.0%      0.0%     
 flops    27 x     3 x     5              2177280       0.0%    100.0%      0.0%     
 flops     3 x     3 x    30              2963520       0.0%    100.0%      0.0%     
 flops     3 x     5 x     3              4421430       0.0%    100.0%      0.0%     
 flops     3 x    32 x     5              5483520       0.0%    100.0%      0.0%     
 flops    32 x     3 x     5              6007680       0.0%    100.0%      0.0%     
 flops     5 x     5 x     3              6292800       0.0%    100.0%      0.0%     
 flops     3 x     5 x     5              6470100       0.0%    100.0%      0.0%     
 flops     6 x     6 x    38              9603360       0.0%    100.0%      0.0%     
 flops     3 x     3 x   105             15558480       0.0%    100.0%      0.0%     
 flops    27 x    27 x     5             16796160       0.0%    100.0%      0.0%     
 flops     3 x     3 x   135             20003760       0.0%    100.0%      0.0%     
 flops    13 x     6 x    38             22407840       0.0%    100.0%      0.0%     
 flops     6 x    13 x    38             22407840       0.0%    100.0%      0.0%     
 flops    27 x     3 x    30             22861440       0.0%    100.0%      0.0%     
 flops     3 x    27 x    30             22861440       0.0%    100.0%      0.0%     
 flops     3 x    30 x     3             31034880       0.0%    100.0%      0.0%     
 flops    27 x     5 x     3             33852330       0.0%    100.0%      0.0%     
 flops     3 x     5 x    27             34962030       0.0%    100.0%      0.0%     
 flops    30 x     5 x     3             44049600       0.0%    100.0%      0.0%     
 flops     5 x    30 x     3             44323200       0.0%    100.0%      0.0%     
 flops    32 x    27 x     5             46344960       0.0%    100.0%      0.0%     
 flops    27 x    32 x     5             46448640       0.0%    100.0%      0.0%     
 flops     3 x    30 x     5             46821600       0.0%    100.0%      0.0%     
 flops     3 x     5 x    30             46821600       0.0%    100.0%      0.0%     
 flops     5 x     5 x    27             47725200       0.0%    100.0%      0.0%     
 flops    27 x     5 x     5             49912200       0.0%    100.0%      0.0%     
 flops    13 x    13 x    38             60687900       0.0%    100.0%      0.0%     
 flops    32 x     3 x    30             63221760       0.0%    100.0%      0.0%     
 flops     3 x    32 x    30             63221760       0.0%    100.0%      0.0%     
 flops    32 x     5 x     3             94682880       0.0%    100.0%      0.0%     
 flops     3 x     5 x    32             97818240       0.0%    100.0%      0.0%     
 flops    27 x     3 x   105            120022560       0.0%    100.0%      0.0%     
 flops     3 x    27 x   105            120022560       0.0%    100.0%      0.0%     
 flops    32 x    32 x     5            128163840       0.0%    100.0%      0.0%     
 flops     5 x     5 x    32            135475200       0.0%    100.0%      0.0%     
 flops    32 x     5 x     5            138028800       0.0%    100.0%      0.0%     
 flops    27 x     3 x   135            154314720       0.0%    100.0%      0.0%     
 flops     3 x    27 x   135            154314720       0.0%    100.0%      0.0%     
 flops    27 x    27 x    30            176359680       0.0%    100.0%      0.0%     
 flops    27 x    30 x     3            237979620       0.0%    100.0%      0.0%     
 flops     3 x    30 x    27            245269620       0.0%    100.0%      0.0%     
 flops    27 x     5 x    27            267827310       0.0%    100.0%      0.0%     
 flops    30 x    30 x     3            310262400       0.0%    100.0%      0.0%     
 flops    32 x     3 x   105            331914240       0.0%    100.0%      0.0%     
 flops     3 x    32 x   105            331914240       0.0%    100.0%      0.0%     
 flops    30 x     5 x    27            334076400       0.0%    100.0%      0.0%     
 flops     5 x    30 x    27            336895200       0.0%    100.0%      0.0%     
 flops     3 x    30 x    30            340804800       0.0%    100.0%      0.0%     
 flops    27 x    30 x     5            361195200       0.0%    100.0%      0.0%     
 flops    27 x     5 x    30            361195200       0.0%    100.0%      0.0%     
 flops    32 x     3 x   135            426746880       0.0%    100.0%      0.0%     
 flops     3 x    32 x   135            426746880       0.0%    100.0%      0.0%     
 flops    32 x    27 x    30            487710720       0.0%    100.0%      0.0%     
 flops    27 x    32 x    30            487710720       0.0%    100.0%      0.0%     
 flops    32 x    30 x     3            664254720       0.0%    100.0%      0.0%     
 flops     3 x    30 x    32            687623040       0.0%    100.0%      0.0%     
 flops    27 x     5 x    32            747394560       0.0%    100.0%      0.0%     
 flops    32 x     5 x    27            754513920       0.0%    100.0%      0.0%     
 flops    27 x    27 x   105            925888320       0.0%    100.0%      0.0%     
 flops    30 x     5 x    32            948326400       0.0%    100.0%      0.0%     
 flops     5 x    30 x    32            948326400       0.0%    100.0%      0.0%     
 flops    32 x    30 x     5            998860800       0.0%    100.0%      0.0%     
 flops    32 x     5 x    30            998860800       0.0%    100.0%      0.0%     
 flops    27 x    27 x   135           1190427840       0.0%    100.0%      0.0%     
 flops    32 x    32 x    30           1348730880       0.0%    100.0%      0.0%     
 flops    27 x    30 x    27           1880426340       0.0%    100.0%      0.0%     
 flops    32 x     5 x    32           2112389120       0.0%    100.0%      0.0%     
 flops    30 x    30 x    27           2358266400       0.0%    100.0%      0.0%     
 flops    32 x    27 x   105           2560481280       0.0%    100.0%      0.0%     
 flops    27 x    32 x   105           2560481280       0.0%    100.0%      0.0%     
 flops    27 x    30 x    30           2629065600       0.0%    100.0%      0.0%     
 flops    32 x    27 x   135           3292047360       0.0%    100.0%      0.0%     
 flops    27 x    32 x   135           3292047360       0.0%    100.0%      0.0%     
 flops    27 x    30 x    32           5248333440       0.0%    100.0%      0.0%     
 flops    32 x    30 x    27           5297166720       0.0%    100.0%      0.0%     
 flops     3 x     6 x     3           5866815960       0.0%    100.0%      0.0%     
 flops     3 x     3 x     6           5880765132       0.0%    100.0%      0.0%     
 flops    30 x    30 x    32           6638284800       0.0%    100.0%      0.0%     
 flops    32 x    32 x   105           7080837120       0.0%    100.0%      0.0%     
 flops    32 x    30 x    30           7270502400       0.0%    100.0%      0.0%     
 flops    32 x    32 x   135           9103933440       0.0%    100.0%      0.0%     
 flops     3 x     6 x     6          10081216800       0.0%    100.0%      0.0%     
 flops    32 x    30 x    32          14818836480       0.0%    100.0%      0.0%     
 flops     3 x    13 x     3          15412574970       0.0%    100.0%      0.0%     
 flops     3 x     3 x    13          15449866146       0.0%    100.0%      0.0%     
 flops     6 x     6 x     3          19671356088       0.0%    100.0%      0.0%     
 flops     3 x    13 x     6          25484969952       0.0%    100.0%      0.0%     
 flops     3 x     6 x    13          26485630704       0.0%    100.0%      0.0%     
 flops     3 x     6 x    27          43563467304       0.0%    100.0%      0.0%     
 flops     3 x    27 x     6          43665008256       0.0%    100.0%      0.0%     
 flops    27 x     6 x     3          45260132184       0.0%    100.0%      0.0%     
 flops    27 x     3 x     6          45365679720       0.0%    100.0%      0.0%     
 flops     6 x    13 x     3          50583229632       0.0%    100.0%      0.0%     
 flops    13 x     6 x     3          51580823112       0.0%    100.0%      0.0%     
 flops     3 x    13 x    13          66954160416       0.0%    100.0%      0.0%     
 flops    27 x     6 x     6          74853288432       0.0%    100.0%      0.0%     
 flops     3 x    13 x    27         113692479498       0.0%    100.0%      0.0%     
 flops     3 x    27 x    13         113962788810       0.0%    100.0%      0.0%     
 flops    27 x    13 x     3         118902011670       0.0%    100.0%      0.0%     
 flops    27 x     3 x    13         119184306228       0.0%    100.0%      0.0%     
 flops    32 x     6 x     3         125164810368       0.0%    100.0%      0.0%     
 flops    32 x     3 x     6         125463112704       0.0%    100.0%      0.0%     
 flops     3 x     6 x    32         129471189120       0.0%    100.0%      0.0%     
 flops     3 x    32 x     6         129771624960       0.0%    100.0%      0.0%     
 flops    13 x    13 x     3         132891783804       0.0%    100.0%      0.0%     
 flops     6 x     6 x    27         144164153160       0.0%    100.0%      0.0%     
 flops    27 x    13 x     6         189225650016       0.0%    100.0%      0.0%     
 flops    27 x     6 x    13         195366451176       0.0%    100.0%      0.0%     
 flops    32 x     6 x     6         222462867456       0.0%    100.0%      0.0%     
 flops    32 x    13 x     3         328818300096       0.0%    100.0%      0.0%     
 flops    32 x     3 x    13         329617906176       0.0%    100.0%      0.0%     
 flops     3 x    13 x    32         332221538688       0.0%    100.0%      0.0%     
 flops     3 x    32 x    13         333005335104       0.0%    100.0%      0.0%     
 flops    27 x     6 x    27         336073586868       0.0%    100.0%      0.0%     
 flops    27 x    27 x     6         336842641044       0.0%    100.0%      0.0%     
 flops     6 x    13 x    27         369008227692       0.0%    100.0%      0.0%     
 flops    13 x     6 x    27         375131473236       0.0%    100.0%      0.0%     
 flops     6 x     6 x    32         440737731072       0.0%    100.0%      0.0%     
 flops    27 x    13 x    13         493876378008       0.0%    100.0%      0.0%     
 flops    32 x    13 x     6         562378732032       0.0%    100.0%      0.0%     
 flops    32 x     6 x    13         570868446720       0.0%    100.0%      0.0%     
 flops    27 x    13 x    27         877091763132       0.0%    100.0%      0.0%     
 flops    27 x    27 x    13         879137828478       0.0%    100.0%      0.0%     
 flops    32 x     6 x    27         929394321408       0.0%    100.0%      0.0%     
 flops    32 x    27 x     6         931559222016       0.0%    100.0%      0.0%     
 flops    13 x    13 x    27         961849006560       0.0%    100.0%      0.0%     
 flops    27 x     6 x    32         998813908224       0.0%    100.0%      0.0%     
 flops    27 x    32 x     6        1001089113984       0.0%    100.0%      0.0%     
 flops     6 x    13 x    32        1121286900864       0.0%    100.0%      0.0%     
 flops    13 x     6 x    32        1129748246016       0.0%    100.0%      0.0%     
 flops    32 x    13 x    13        1443128455808       0.0%    100.0%      0.0%     
 flops    32 x    13 x    27        2425555409472       0.0%    100.0%      0.0%     
 flops    32 x    27 x    13        2431360533888       0.0%    100.0%      0.0%     
 flops    27 x    13 x    32        2562960531456       0.0%    100.0%      0.0%     
 flops    27 x    32 x    13        2568884378112       0.0%    100.0%      0.0%     
 flops    32 x     6 x    32        2762178846720       0.0%    100.0%      0.0%     
 flops    32 x    32 x     6        2768624898048       0.0%    100.0%      0.0%     
 flops    13 x    13 x    32        2877183250240       0.0%    100.0%      0.0%     
 flops    32 x    13 x    32        7087770007552       0.0%    100.0%      0.0%     
 flops    32 x    32 x    13        7104655773696       0.0%    100.0%      0.0%     
 flops inhomo. stacks                           0       0.0%      0.0%      0.0%
 flops total                        50.170547E+12       0.0%    100.0%      0.0%
 flops max/rank                      3.781236E+12       0.0%    100.0%      0.0%
 matmuls inhomo. stacks                         0       0.0%      0.0%      0.0%
 matmuls total                         6160639340       0.0%    100.0%      0.0%
 number of processed stacks             438433775       0.0%    100.0%      0.0%
 average stack size                                     0.0      14.1       0.0
 marketing flops                    51.372305E+12
 -------------------------------------------------------------------------------
 # multiplications                         121613
 max memory usage/rank               5.545968E+09
 # max total images/rank                        1
 # max 3D layers                                1
 # MPI messages exchanged                11674848
 MPI messages size (bytes):
  total size                         2.440060E+12
  min size                           0.000000E+00
  max size                         957.728000E+03
  average size                     209.001469E+03
 MPI breakdown and total messages size (bytes):
             size <=      128                5544                        0
       128 < size <=     8192                   9                    56784
      8192 < size <=    32768              879693              26283304992
     32768 < size <=   131072             1457457             158758058904
    131072 < size <=  4194304             9332145            2255843515440
   4194304 < size <= 16777216                   0                        0
  16777216 < size                               0                        0
 -------------------------------------------------------------------------------
 -                                                                             -
 -                      DBCSR MESSAGE PASSING PERFORMANCE                      -
 -                                                                             -
 -------------------------------------------------------------------------------
 ROUTINE             CALLS      AVE VOLUME [Bytes]
 MP_Bcast              143                     12.
 MP_Allreduce       486878                     17.
 MP_Alltoall        997481                  14250.
 MP_ISend          2820400                  67612.
 MP_IRecv          2820950                  65285.
 -------------------------------------------------------------------------------

 -------------------------------------------------------------------------------
 -                                                                             -
 -                                GRID STATISTICS                              -
 -                                                                             -
 -------------------------------------------------------------------------------
 LP    KERNEL             BACKEND                              COUNT     PERCENT
 3     collocate ortho    CPU                                  18400      23.29%
 3     integrate ortho    CPU                                  18400      23.29%
 4     collocate ortho    CPU                                  12466      15.78%
 4     integrate ortho    CPU                                  12466      15.78%
 2     collocate ortho    CPU                                   8602      10.89%
 2     integrate ortho    CPU                                   8602      10.89%
 0     collocate general  CPU                                     52       0.07%
 0     integrate general  CPU                                     26       0.03%
 -------------------------------------------------------------------------------

 -------------------------------------------------------------------------------
 -                                                                             -
 -                          OFFLOAD MEMPOOL STATISTICS                         -
 -                                                                             -
 -------------------------------------------------------------------------------
 Memory consumption                Number of allocations  Used [MiB]  Size [MiB]
 Host                                                  6          34  4484282717204
 -------------------------------------------------------------------------------

 MEMORY| Estimated peak process memory [MiB]                                1250

 -------------------------------------------------------------------------------
 ----                             MULTIGRID INFO                            ----
 -------------------------------------------------------------------------------
 count for grid        1:          74851          cutoff [a.u.]          300.00
 count for grid        2:          61033          cutoff [a.u.]          100.00
 count for grid        3:          61763          cutoff [a.u.]           33.33
 count for grid        4:          33988          cutoff [a.u.]           11.11
 total gridlevel count  :         231635

 -------------------------------------------------------------------------------
 -                                                                             -
 -                         MESSAGE PASSING PERFORMANCE                         -
 -                                                                             -
 -------------------------------------------------------------------------------

 ROUTINE             CALLS      AVE VOLUME [Bytes]
 MP_Group               24
 MP_Bcast              286                 195823.
 MP_Allreduce       123096                   5542.
 MP_Sync                54
 MP_Alltoall           926               28547207.
 MP_SendRecv          1380                 133920.
 MP_ISendRecv         1380                 133920.
 MP_Wait              3733
 MP_comm_split          12
 MP_ISend             1708                1695473.
 MP_IRecv             1708                1695488.
 -------------------------------------------------------------------------------


 -------------------------------------------------------------------------------
 -                                                                             -
 -                           R E F E R E N C E S                               -
 -                                                                             -
 -------------------------------------------------------------------------------
 
 CP2K version 2026.2 (Development Version), the CP2K developers group (2026).
 CP2K is freely available from https://www.cp2k.org/ .
 
 M. Iannuzzi, J. Wilhelm, F. Stein, A. Bussy, H. Elgabarty, D. Golze, A. Hehn, 
 M. Graml, S. Marek, B. Sertcan Gökmen, C. Schran, H. Forbert, R. Z. 
 Khaliullin, A. Kozhevnikov, M. Taillefumier, R. Meli, V. V. Rybkin, M. Brehm, 
 R. Schade, O. Schütt, J. V. Pototschnig, H. Mirhosseini, A. Knüpfer, D. Marx, 
 M. Krack, J. Hutter, T. D. Kühne.
 J. Phys. Chem. B 130, 1237-1310 (2026).
 The CP2K Program Package Made Simple.
 https://doi.org/10.1021/acs.jpcb.5c05851

 M. Graml, K. Zollner, D. Hernangómez-Pérez, P. E. Faria Junior, J. Wilhelm.
 J. Chem. Theory Comput. 20, 2202-2208 (2024).
 Low-scaling GW algorithm applied to twisted transition-metal dichalcogenide 
 heterobilayers.
 https://doi.org/10.1021/acs.jctc.3c01230

 T. D. Kühne, M. Iannuzzi, M. Del Ben, V. V. Rybkin, P. Seewald, F. Stein, T. 
 Laino, R. Z. Khaliullin, O. Schütt, F. Schiffmann, D. Golze, J. Wilhelm, S. 
 Chulkov, M. H. Bani-Hashemian, V. Weber, U. Borstnik, M. Taillefumier, A. S. 
 Jakobovits, A. Lazzaro, H. Pabst, T. Müller, R. Schade, M. Guidon, S. 
 Andermatt, N. Holmberg, G. K. Schenter, A. Hehn, A. Bussy, F. Belleflamme, G. 
 Tabacchi, A. Glöß, M. Lass, I. Bethune, C. J. Mundy, C. Plessl, M. Watkins, 
 J. VandeVondele, M. Krack, J. Hutter.
 J. Chem. Phys. 152, 194103 (2020).
 CP2K: An electronic structure and molecular dynamics software package - 
 Quickstep: Efficient and accurate electronic structure calculations.
 https://doi.org/10.1063/5.0007045

 O. Schuett, P. Messmer, J. Hutter, J. VandeVondele.
 Electronic Structure Calculations on Graphics Processing Units, 173-190 (2016).
 GPU-Accelerated Sparse Matrix-Matrix Multiplication for Linear Scaling Density 
 Functional Theory.
 https://doi.org/10.1002/9781118670712.ch8

 A. Heinecke, G. Henry, M. Hutchinson, H. Pabst.
 Proceedings of Intl. Supercomputing Conference, 981-991 (2016).
 LIBXSMM: Accelerating Small Matrix Multiplications by Runtime Code Generation.
 https://doi.org/10.1109/SC.2016.83

 U. Borstnik, J. VandeVondele, V. Weber, J. Hutter.
 Parallel Comput. 40, 47-58 (2014).
 Sparse matrix multiplication: The distributed block-compressed sparse row 
 library.
 https://doi.org/10.1016/j.parco.2014.03.012

 A. Marek, V. Blum, R. Johanni, V. Havu, B. Lang, T. Auckenthaler, A. Heinecke, 
 H. Bungartz, H. Lederer.
 J. Phys. Condens. Matter 26, 213201 (2014).
 The ELPA library: scalable parallel eigenvalue solutions for electronic 
 structure theory and computational science.
 https://doi.org/10.1088/0953-8984/26/21/213201

 J. VandeVondele, J. Hutter.
 J. Chem. Phys. 127, 114105 (2007).
 Gaussian basis sets for accurate calculations on molecular systems in gas and 
 condensed phases.
 https://doi.org/10.1063/1.2770708

 J. VandeVondele, M. Krack, F. Mohamed, M. Parrinello, T. Chassaing, J. Hutter.
 Comput. Phys. Commun. 167, 103-128 (2005).
 QUICKSTEP: Fast and accurate density functional calculations using a mixed 
 Gaussian and plane waves approach.
 https://doi.org/10.1016/j.cpc.2004.12.014

 M. Krack.
 Theor. Chem. Acc. 114, 145-152 (2005).
 Pseudopotentials for H to Kr optimized for gradient-corrected 
 exchange-correlation functionals.
 https://doi.org/10.1007/s00214-005-0655-y

 M. Frigo, S. G. Johnson.
 Proc. IEEE 93, 216-231 (2005).
 The design and implementation of FFTW3.
 https://doi.org/10.1109/JPROC.2004.840301

 C. Hartwigsen, S. Goedecker, J. Hutter.
 Phys. Rev. B 58, 3641-3662 (1998).
 Relativistic separable dual-space Gaussian pseudopotentials from H to Rn.
 https://doi.org/10.1103/PhysRevB.58.3641

 G. Lippert, J. Hutter, M. Parrinello.
 Mol. Phys. 92, 477-487 (1997).
 A hybrid Gaussian and plane wave density functional scheme.
 https://doi.org/10.1080/002689797170220

 S. Goedecker, M. Teter, J. Hutter.
 Phys. Rev. B 54, 1703-1710 (1996).
 Separable dual-space Gaussian pseudopotentials.
 https://doi.org/10.1103/PhysRevB.54.1703

 J. P. Perdew, K. Burke, M. Ernzerhof.
 Phys. Rev. Lett. 77, 3865-3868 (1996).
 Generalized gradient approximation made simple.
 https://doi.org/10.1103/PhysRevLett.77.3865

 P. E. Blöchl.
 J. Chem. Phys. 103, 7422-7428 (1995).
 Electrostatic decoupling of periodic images of plane‐wave‐expanded 
 densities and derived atomic point charges.
 https://doi.org/10.1063/1.470314

 R. H. Byrd, P. H. Lu, J. Nocedal, C. Y. Zhu.
 SIAM J. Sci. Comput. 16, 1190-1208 (1995).
 A Limited Memory Algorithm for Bound Constrained Optimization.
 https://doi.org/10.1137/0916069

 C. G. Broyden.
 Math. Comput. 19, 577-593 (1965).
 A class of methods for solving nonlinear simultaneous equations.
 https://doi.org/10.1090/S0025-5718-1965-0198670-6


 -------------------------------------------------------------------------------
 -                                                                             -
 -                                T I M I N G                                  -
 -                                                                             -
 -------------------------------------------------------------------------------
 SUBROUTINE                       CALLS  ASD         SELF TIME        TOTAL TIME
                                MAXIMUM       AVERAGE  MAXIMUM  AVERAGE  MAXIMUM
 CP2K                                 1  1.0    0.004    0.005  251.016  251.041
 run_propagation_linearized_bse       1  2.0    0.083    0.276  250.772  250.868
 solve_rk4_timestep                3027  3.0    0.024    0.032  190.505  190.549
 build_shared_sex_and_hartree     12108  4.0    0.029    0.032  156.626  156.865
 dbcsr_multiply_generic          121613  7.8    1.875    1.935  114.343  115.347
 compute_sigma_ri_rs_complex      12108  5.0    0.054    0.057  114.395  114.769
 compute_sigma_ri_rs              24216  6.0    0.224    0.249  114.209  114.545
 dbcsr_contract_ABA               48433  7.0    0.154    0.161   95.330   96.190
 multiply_cannon                 121613  8.8    4.504    4.855   61.632   64.742
 qs_energies                          1  3.0    0.000    0.000   53.306   53.311
 multiply_cannon_loop            121613  9.8    3.042    3.314   45.500   49.454
 parallel_gemm_fm_cosma          194267  6.0   45.774   46.030   45.774   46.030
 qs_energies_properties               1  4.0    0.000    0.000   41.785   41.789
 post_scf_bandstructure               1  5.0    0.001    0.001   41.785   41.789
 gw                                   1  6.0    0.001    0.001   41.749   41.753
 gw_calc_non_periodic_ri_rs           1  7.0    0.000    0.000   41.159   41.198
 ri_rs_grid_assembler                 1  8.0    0.000    0.002   39.979   40.020
 optimize_ri_rs_grid                  1  9.0    0.989    1.357   39.970   40.013
 evaluate_rirs_grid_cluster         402 10.0   23.824   38.402   23.824   38.402
 make_m2s                        243226  8.8    0.744    0.797   33.589   34.908
 update_effective_ham_MO          12108  4.0    0.061    0.070   33.848   33.964
 make_images                     243226  9.8    8.474   10.475   31.889   33.164
 mp_sum_d                         25384  4.1   15.378   31.592   15.378   31.592
 multiply_cannon_multrec         486452 10.8   25.292   30.305   26.088   30.687
 compute_hartree_ri_rs_from_dia   12108  5.0    0.064    0.074   30.122   30.278
 hartree_potential_from_diag_ri   24216  6.0    1.168    1.310   29.980   30.154
 transform_mo_to_ao_contravaria   24217  5.0    0.039    0.045   23.241   23.530
 transform_ao_to_mo_covariant_c   24216  5.0    0.041    0.048   22.325   22.440
 mp_waitall_1                   5839477 12.1   13.886   19.680   13.886   19.680
 copy_dbcsr_to_fm                 48584  7.0    0.272    0.292   15.607   17.647
 dbcsr_complete_redistribute      73045  8.0    2.838    3.663   15.001   15.582
 make_images_data                243226 10.8    1.306    1.427   13.583   15.417
 hybrid_alltoall_any             291814 11.3    2.385    6.553   10.493   12.326
 scf_env_do_scf                       1  4.0    0.000    0.000   11.291   11.292
 scf_env_do_scf_inner_loop           45  5.0    0.001    0.003   11.291   11.292
 calculate_norms                 972056 10.8    8.686    9.687    8.686    9.687
 dbcsr_finalize                  244729  8.9    0.839    0.903    8.252    8.799
 buffer_matrices_ensure_size     243226  9.8    5.409    7.980    5.409    7.980
 multiply_cannon_metrocomm3      486452 10.8    0.392    0.409    3.736    7.151
 mp_sum_l                        365097  8.8    4.805    6.639    4.805    6.639
 qs_ks_build_kohn_sham_matrix        46  8.0    0.006    0.007    6.167    6.169
 qs_ks_update_qs_env                 45  6.0    0.000    0.001    6.122    6.124
 rebuild_ks_matrix                   45  7.0    0.000    0.000    6.118    6.120
 fft_wrap_pw1pw2                    820 11.1    0.008    0.011    5.501    5.568
 dbcsr_merge_all                 195780  9.9    3.123    3.477    5.266    5.530
 print_ft                             1  3.0    0.002    0.030    5.287    5.361
 greenx_refine_ft                     3  4.0    5.283    5.360    5.283    5.360
 fft_wrap_pw1pw2_300                544 12.4    0.493    0.665    5.226    5.321
 make_images_sizes               243226 10.8    0.111    0.129    4.301    5.147
 copy_fm_to_dbcsr                 24461  7.0    0.051    0.065    4.819    5.078
 mp_alltoall_i44                 243226 11.8    4.189    5.032    4.189    5.032
 dbcsr_desymmetrize_deep          48588  8.0    0.595    0.809    3.305    4.610
 fft3d_ps                           820 13.1    1.926    2.254    4.257    4.454
 mp_alltoall_i22                 121633  9.0    3.539    4.450    3.539    4.450
 mp_sum_dv                        97224  7.0    3.252    4.402    3.252    4.402
 multiply_cannon_metrocomm1      486452 10.8    0.398    0.419    1.837    4.343
 make_images_pack                243226 10.8    0.973    3.050    2.143    4.319
 mp_allgather_i34                121613  9.8    2.942    4.227    2.942    4.227
 qs_vxc_create                       46  9.0    0.001    0.001    3.964    4.025
 xc_vxc_pw_create                    45 10.0    0.076    0.078    3.963    4.024
 dbcsr_iterator_start           1168853  9.9    2.381    2.961    2.844    3.362
 qs_rho_update_rho_low               46  6.0    0.000    0.000    3.096    3.096
 calculate_rho_elec                  46  7.0    0.065    0.065    3.095    3.096
 xc_pw_derive                       270 12.0    0.001    0.001    2.783    2.855
 dbcsr_create_new               1192688  9.6    1.956    2.037    2.532    2.648
 mp_alltoall_d11v                364991  9.4    2.231    2.439    2.231    2.439
 dbcsr_work_destroy_all          487594 10.9    1.376    1.561    2.062    2.423
 dbcsr_add_wm_from_matrix         24422  9.0    1.447    2.018    2.097    2.394
 mp_alltoall_z22v                   820 15.1    1.776    2.386    1.776    2.386
 hadamard_product_inplace         24216  7.0    1.876    2.183    1.897    2.202
 mp_cart_sub                      97182  9.0    1.999    2.022    1.999    2.022
 xc_pw_divergence                    45 11.0    0.001    0.001    1.956    2.010
 dbcsr_data_release             9114771 10.7    1.727    1.948    1.727    1.948
 xc_rho_set_and_dset_create          45 11.0    0.062    0.072    1.891    1.929
 dbcsr_copy                      292000  8.5    1.189    1.467    1.628    1.893
 dbcsr_iterator_stop            1168853  9.9    1.468    1.641    1.631    1.819
 multiply_cannon_multrec_finali  121613 11.8    0.054    0.061    0.796    1.793
 dbcsr_mm_multrec_finalize       121613 12.8    0.356    0.560    0.742    1.738
 dbcsr_work_create               487594  9.9    1.136    1.218    1.606    1.726
 gspace_mixing                       44  6.0    0.061    0.061    1.719    1.720
 dbcsr_data_new                 5537244 10.2    1.551    1.669    1.551    1.669
 density_rs2pw                       46  8.0    0.002    0.002    1.541    1.621
 dbcsr_special_finalize          243226 10.8    0.148    0.153    1.489    1.621
 dbcsr_fill_wm_from_matrix        24422 10.0    0.318    1.505    0.458    1.607
 mp_cart_create                   48614  9.0    1.453    1.588    1.453    1.588
 dbcsr_scale_anytype              49457  8.6    0.477    0.862    1.497    1.581
 x_to_yz                            454 14.3    0.360    0.437    1.330    1.567
 dbcsr_make_untransposed_blocks  146027  8.8    0.681    0.809    1.475    1.560
 grid_collocate_task_list            46  8.0    1.450    1.539    1.450    1.539
 quick_finalize                  291814 11.5    0.578    0.637    1.367    1.482
 dbcsr_destroy                  1144013  8.8    0.887    0.952    1.360    1.461
 sum_up_and_integrate                46  9.0    0.001    0.001    1.333    1.337
 yz_to_x                            366 13.8    0.184    0.207    0.990    1.332
 multiply_cannon_metrocomm2      364839 10.8    0.644    0.727    1.137    1.328
 integrate_v_rspace                  46 10.0    0.001    0.001    1.324    1.328
 mp_alltoall_i11v                267723  9.0    1.164    1.299    1.164    1.299
 dbcsr_mm_sched_finalize         121613 13.8    0.343    1.248    0.343    1.248
 setup_rec_index_2d              243226  9.8    1.036    1.243    1.036    1.243
 broyden_mixing                      44  7.0    0.975    1.152    1.143    1.182
 multiply_cannon_metrocomm4      364839 10.8    0.542    0.593    0.974    1.076
 potential_pw2rs                     46 11.0    0.006    0.007    1.063    1.065
 tree_to_linear_d                 73078 11.0    0.862    1.040    0.862    1.040
 dbcsr_new_transposed             72937  8.7    0.226    0.270    0.915    1.019
 dbcsr_mm_multrec_init           121613  9.8    0.064    0.074    0.888    0.947
 dbcsr_set                        97544  8.5    0.042    0.048    0.802    0.934
 dbcsr_make_index_list           243226  9.8    0.862    0.916    0.862    0.916
 dbcsr_sort_data                  97331 10.8    0.642    0.906    0.642    0.906
 dbcsr_zero                       97544  9.5    0.760    0.888    0.760    0.888
 dbcsr_sort_indices              535577 11.9    0.756    0.879    0.756    0.879
 dbcsr_mm_csr_init               121613 10.8    0.628    0.684    0.823    0.876
 mp_isend_iv                    1653082 11.8    0.749    0.831    0.749    0.831
 setup_buffer_matrices           243226  9.8    0.276    0.302    0.716    0.780
 cp_fm_write_formatted             6054  3.0    0.673    0.689    0.681    0.706
 copy_dbcsr_to_fm_bc              48584  8.0    0.333    0.488    0.555    0.695
 dbcsr_iterator_seek            1168853 10.9    0.463    0.663    0.463    0.663
 mp_isend_dv                    1363160 12.2    0.608    0.648    0.608    0.648
 transfer_rs2pw                     186  9.0    0.002    0.003    0.538    0.638
 create_and_init_bs_env_for_gw        1  7.0    0.000    0.000    0.589    0.618
 cp_fm_write_unformatted           6059  3.0    0.566    0.579    0.573    0.608
 copy_fm_to_dbcsr_bc              24461  8.0    0.180    0.238    0.537    0.584
 dbcsr_scale_d                    24248  7.0    0.014    0.016    0.550    0.567
 qs_ks_ddapc                         46  9.0    0.001    0.001    0.542    0.563
 mp_waitany                        1680 12.5    0.467    0.557    0.467    0.557
 xc_functional_eval                  45 12.0    0.000    0.001    0.451    0.478
 pbe_lda_eval                        45 13.0    0.450    0.478    0.450    0.478
 transfer_pw2rs                     185 12.0    0.001    0.001    0.460    0.460
 qs_scf_new_mos                      45  6.0    0.001    0.001    0.443    0.454
 compute_Sigma_c_and_QP_energie       1  8.0    0.000    0.000    0.449    0.451
 transfer_rs2pw_300                  48  9.9    0.105    0.129    0.329    0.418
 cp_cfm_transpose                 24216  5.0    0.260    0.407    0.260    0.407
 compute_Sigma_c                      1  9.0    0.000    0.001    0.386    0.386
 compute_W                            1  8.0    0.000    0.000    0.385    0.385
 setup_time_and_frequency_minim       1  8.0    0.000    0.000    0.331    0.360
 build_minimax_time_frequency_g       1  9.0    0.000    0.000    0.331    0.360
 fit_l_sq_weights                     3 10.0    0.331    0.359    0.331    0.359
 mp_irecv_iv                    1653357 11.8    0.291    0.357    0.291    0.357
 eigensolver_symm                    45  7.0    0.002    0.003    0.351    0.351
 pw_gather_p                        366 12.8    0.294    0.339    0.294    0.339
 contract_grid_panels_sigma_c        30 10.0    0.001    0.001    0.319    0.319
 dbcsr_make_index_exist         1192688 10.6    0.297    0.319    0.297    0.319
 pw_scatter_p                       454 13.3    0.256    0.315    0.256    0.315
 cp_fm_diag_elpa                     49  8.0    0.000    0.000    0.311    0.312
 mp_sum_iv                       121631  9.8    0.281    0.311    0.281    0.311
 mp_bcast_dm                          2 11.5    0.252    0.310    0.252    0.310
 cp_fm_diag_elpa_base                49  9.0    0.307    0.308    0.309    0.310
 merge_index                     195780 10.9    0.266    0.303    0.266    0.303
 transfer_pw2rs_300                  47 12.9    0.120    0.153    0.279    0.297
 mp_irecv_dv                    1362848 12.2    0.248    0.294    0.248    0.294
 release_dbcsr_topology_and_mat   72651  7.0    0.061    0.069    0.275    0.293
 dbcsr_switch_data_area          608199 11.1    0.193    0.200    0.274    0.283
 pw_poisson_solve                    46  9.0    0.000    0.001    0.273    0.283
 cp_fm_trace_a0b0t0               18168  3.0    0.033    0.052    0.177    0.272
 transpose_index_local            72937  9.7    0.064    0.069    0.208    0.268
 fft_wrap_pw1pw2_100                 92 11.5    0.013    0.015    0.183    0.267
 pw_integral_ab_c1d_c1d_gs           92 10.5    0.226    0.256    0.258    0.261
 grid_integrate_task_list            46 11.0    0.222    0.257    0.222    0.257
 get_mat_chi_Gamma_tau                1  8.0    0.000    0.000    0.252    0.252
 mp_comm_free                    145854  9.0    0.237    0.247    0.237    0.247
 compute_fm_W_freq                   30  9.0    0.000    0.000    0.240    0.242
 pw_copy                            731 11.6    0.214    0.220    0.214    0.220
 contract_grid_panels                31  9.0    0.001    0.001    0.213    0.214
 dbcsr_distribution_new          438652  8.8    0.183    0.194    0.183    0.194
 pw_derive                          408 12.3    0.179    0.194    0.179    0.194
 dbcsr_get_diag                   24216  7.0    0.127    0.163    0.150    0.185
 dbcsr_data_copy_aa2              97714 11.0    0.115    0.178    0.115    0.178
 cp_ddapc_apply_CD                   46 10.0    0.002    0.004    0.165    0.175
 dbcsr_make_dbcsr_index          585099 11.7    0.148    0.174    0.148    0.174
 transfer_rs2pw_100                  46 10.0    0.035    0.046    0.137    0.174
 RI_2c_integral_mat                   4  7.2    0.000    0.000    0.170    0.171
 get_RI_basis                         1  8.0    0.000    0.000    0.168    0.168
 compute_Minv_Gamma                   1  9.0    0.001    0.001    0.168    0.168
 build_2c_integrals                   4  8.2    0.012    0.165    0.165    0.166
 fill_hash_tables                121613 11.8    0.128    0.166    0.128    0.166
 cp_fm_to_cfm                     96869  6.0    0.132    0.161    0.132    0.161
 dbcsr_reserve_all_blocks         24464  9.0    0.023    0.027    0.118    0.155
 init_scf_run                         1  4.0    0.000    0.000    0.152    0.152
 gw_3c_ctx_create                     2 10.0    0.009    0.140    0.110    0.149
 cp_fm_transpose                  18169  3.0    0.093    0.149    0.093    0.149
 transfer_pw2rs_100                  46 13.0    0.035    0.042    0.124    0.144
 scf_env_initial_rho_setup            1  5.0    0.000    0.000    0.142    0.142
 cp_cfm_to_fm                     84761  5.6    0.106    0.139    0.106    0.139
 mp_max_l                            22  1.8    0.074    0.133    0.074    0.133
 dbcsr_reserve_blocks             24478 10.0    0.083    0.118    0.095    0.131
 mp_sum_dm                           46  7.9    0.069    0.120    0.069    0.120
 pw_copy_from_array                 454 13.3    0.100    0.118    0.100    0.118
 multrec_filtering                97290 13.8    0.043    0.105    0.043    0.105
 pw_poisson_set                      47  9.9    0.001    0.001    0.094    0.103
 build_G_ao                         121  9.5    0.001    0.001    0.090    0.091
 qs_init_subsys                       1  2.0    0.000    0.000    0.087    0.087
 qs_env_setup                         1  3.0    0.000    0.000    0.087    0.087
 qs_env_rebuild_pw_env                2  4.0    0.000    0.000    0.086    0.086
 pw_env_rebuild                       1  5.0    0.000    0.000    0.086    0.086
 setup_square_topology            48558  7.0    0.057    0.061    0.081    0.086
 dbcsr_make_index_local_row      243226  9.8    0.079    0.085    0.079    0.085
 rs_gather_matrices                  46 11.0    0.001    0.001    0.038    0.084
 pw_grid_setup                        4  6.0    0.000    0.000    0.083    0.084
 pw_grid_setup_internal               4  7.0    0.001    0.002    0.083    0.084
 mp_recv_dv                       60564  4.0    0.005    0.082    0.005    0.082
 abc_contract_xsmm                18791 10.0    0.047    0.082    0.047    0.082
 pw_copy_to_array                   366 12.8    0.077    0.082    0.077    0.082
 pw_axpy                            455 10.3    0.078    0.081    0.078    0.081
 get_electron_number_MO            3027  3.0    0.004    0.005    0.045    0.080
 cp_cfm_scale_and_add             93848  5.0    0.063    0.079    0.063    0.079
 compute_fm_chi_Gamma_freq           30  9.0    0.000    0.000    0.075    0.079
 compute_Z_lP                         1  8.0    0.001    0.001    0.076    0.076
 compute_Z_lP_standard                1  9.0    0.001    0.001    0.074    0.074
 dbcsr_mm_sched_init             121613 11.8    0.051    0.053    0.067    0.074
 pw_grid_sort                         4  8.0    0.044    0.045    0.066    0.072
 fft_wrap_pw1pw2_40                  92 11.5    0.003    0.003    0.058    0.070
 create_qs_kind_set                   1  2.0    0.000    0.000    0.067    0.067
 read_qs_kind                         2  3.0    0.020    0.027    0.067    0.067
 dbcsr_get_data_size_used        244368  9.9    0.059    0.065    0.059    0.065
 compute_QP_energies                  1  9.0    0.000    0.000    0.063    0.064
 calculate_dm_sparse                 45  7.0    0.000    0.000    0.062    0.062
 G_occ_vir                          121 10.5    0.002    0.002    0.059    0.062
 cp_dbcsr_plus_fm_fm_t               45  8.0    0.001    0.001    0.061    0.062
 cp_fm_cholesky_invert               31 10.0    0.055    0.058    0.055    0.058
 transfer_rs2pw_40                   46 10.0    0.021    0.022    0.051    0.056
 to_Gamma_and_mo_real                62 10.0    0.000    0.000    0.055    0.055
 dbcsr_add_d                        931 10.0    0.000    0.000    0.036    0.050
 compute_V_xc                         1  8.0    0.000    0.001    0.050    0.050
 dbcsr_add_anytype                  931 11.0    0.004    0.006    0.036    0.050
 parser_read_line                 20814  4.0    0.002    0.002    0.048    0.049
 pw_zero                            226 11.4    0.043    0.048    0.043    0.048
 dbcsr_get_local_rows            121613  8.8    0.044    0.048    0.044    0.048
 transfer_pw2rs_40                   46 13.0    0.019    0.020    0.042    0.047
 mp_sendrecv_dv                    1380 11.0    0.042    0.047    0.042    0.047
 parser_read_line_low                26  5.1    0.002    0.017    0.046    0.047
 broadcast_input_information         26  6.1    0.007    0.009    0.044    0.046
 fft_wrap_pw1pw2_20                  92 11.5    0.001    0.001    0.026    0.044
 cp_fm_create                     36815  6.0    0.038    0.042    0.038    0.042
 scf_post_calculation_gpw             1  4.0    0.000    0.000    0.041    0.041
 write_available_results              1  5.0    0.000    0.000    0.041    0.041
 write_mo_free_results                1  6.0    0.002    0.002    0.041    0.041
 mixing_init                          1  6.0    0.039    0.041    0.041    0.041
 dbcsr_get_local_cols            121613  8.8    0.035    0.040    0.035    0.040
 get_ddapc                           46 11.0    0.001    0.001    0.028    0.038
 qs_energies_init_hamiltonians        1  4.0    0.000    0.000    0.036    0.036
 rs_grid_zero                        95 13.8    0.033    0.034    0.033    0.034
 qs_env_update_s_mstruct              1  5.0    0.000    0.000    0.034    0.034
 mp_send_dv                       12113  4.0    0.010    0.033    0.010    0.033
 dbcsr_get_global_row_map        121613  8.8    0.023    0.031    0.023    0.031
 read_gw_input_parameters             1  8.0    0.000    0.000    0.029    0.029
 read_rirs_grid_opt                   1  9.0    0.028    0.029    0.028    0.029
 dbcsr_get_global_col_map        121613  8.8    0.022    0.028    0.022    0.028
 sort_shells                          4  9.0    0.022    0.027    0.022    0.027
 mask_mo_block_cfm                36324  5.0    0.016    0.027    0.016    0.027
 compute_d_lp                         2 10.0    0.017    0.020    0.022    0.026
 cp_fm_cholesky_decompose            33 10.0    0.023    0.026    0.023    0.026
 mp_bcast_i_src                     104  7.1    0.023    0.025    0.023    0.025
 modify_hartree_pot                  46 11.0    0.016    0.024    0.016    0.024
 calculate_rho_core                   1  6.0    0.002    0.003    0.023    0.024
 mp_sync                             54  9.8    0.013    0.023    0.013    0.023
 dbcsr_mm_hostdrv_init           121613 12.8    0.017    0.021    0.017    0.021
 transfer_rs2pw_20                   46 10.0    0.007    0.008    0.019    0.020
 extract_grid_panel                 122 10.5    0.010    0.014    0.016    0.020
 hirshfeld_integration                1  7.0    0.006    0.014    0.020    0.020
 eval_bandstructure_properties        1  6.0    0.000    0.000    0.019    0.019
 calculate_hirshfeld_normalizat       1  7.0    0.006    0.014    0.018    0.019
 cp_fm_uplo_to_full                 110 10.0    0.008    0.017    0.008    0.017
 extract_masked_blocks              244 10.6    0.007    0.008    0.015    0.016
 cp_fm_symm                          45  8.0    0.016    0.016    0.016    0.016
 create_and_init_bs_env               1  6.0    0.001    0.001    0.016    0.016
 mp_bcast_am_src                     26  7.1    0.014    0.016    0.014    0.016
 dbcsr_binary_write                   1 10.0    0.015    0.015    0.015    0.015
 compute_Sigma_x                      1  8.0    0.000    0.000    0.015    0.015
 cp_cfm_geeig                         1  7.0    0.000    0.000    0.015    0.015
 pw_multiply_with                    46 10.0    0.013    0.015    0.013    0.015
 fill_fm_Sigma_c_Gamma_time           1 10.0    0.000    0.000    0.014    0.014
 transfer_pw2rs_20                   46 13.0    0.006    0.007    0.013    0.014
 pw_grid_remap                        4  8.0    0.001    0.001    0.008    0.013
 diagonalize_ks_matrix                1  7.0    0.000    0.000    0.013    0.013
 cp_fm_geeig_canon                    1  8.0    0.000    0.000    0.013    0.013
 hadamard_product                    91 10.7    0.006    0.007    0.011    0.013
 build_grid_cache                     1  9.0    0.001    0.001    0.009    0.013
 mp_sum_im3                           5  9.2    0.007    0.012    0.007    0.012
 read_rirs_grid_file                  2 10.0    0.008    0.012    0.008    0.012
 build_gram_jacobi_blas               2 10.0    0.008    0.011    0.009    0.012
 mp_mem_avail_per_rank_GB             4  9.8    0.001    0.001    0.002    0.012
 cp_cfm_heevd                         1  8.0    0.000    0.000    0.011    0.011
 cp_cfm_heevd_base                    1  9.0    0.011    0.011    0.011    0.011
 mp_comm_split_type                   4 10.8    0.001    0.011    0.001    0.011
 cp_cfm_zscale                    24216  5.0    0.008    0.011    0.008    0.011
 check_gw_input                       1  9.0    0.000    0.000    0.001    0.011
 resolve_memory_per_proc              1 10.0    0.000    0.000    0.001    0.011
 build_phi_on_sphere                  2 10.0    0.000    0.001    0.008    0.010
 evaluate_ao_on_points               54 11.0    0.008    0.010    0.008    0.010
 collect_used_col_blocks             92 10.7    0.000    0.000    0.006    0.010
 check_for_restart_files              1  8.0    0.009    0.009    0.009    0.009
 compute_Z_lP_standard_dpotrf         2 10.0    0.007    0.009    0.007    0.009
 dbcsr_crop_matrix                   90 11.0    0.001    0.001    0.008    0.009
 cp_ddapc_init                        1  6.0    0.000    0.000    0.008    0.008
 cp_ddapc_create                      1  7.0    0.000    0.000    0.008    0.008
 xc_pw_smooth                        45 11.0    0.000    0.000    0.006    0.008
 get_ddapc-charges                   46 12.0    0.000    0.001    0.008    0.008
 dbcsr_make_images_dense            132 11.6    0.000    0.001    0.006    0.007
 initialize_sex_selfenergy            1  3.0    0.000    0.000    0.007    0.007
 rt_bse_ri_rs_ensure_W0_grid          1  4.0    0.000    0.000    0.007    0.007
 cp_fm_geeig                          1 10.0    0.000    0.000    0.007    0.007
 pw_scale                           181 10.8    0.006    0.007    0.006    0.007
 rs_scatter_matrices                 46  8.0    0.001    0.001    0.005    0.007
 dbcsr_make_dense_low               132 12.6    0.001    0.001    0.005    0.007
 build_b_vector                      46 13.0    0.005    0.006    0.005    0.006
 pw_grid_assign                       4  8.0    0.006    0.006    0.006    0.006
 dbcsr_copy_submatrix                90 12.0    0.001    0.001    0.006    0.006
 write_mo_set_to_restart             45  6.0    0.001    0.003    0.004    0.006
 parallel_gemm_cfm                   14  6.6    0.000    0.000    0.006    0.006
 parallel_gemm_cfm_cosma             14  7.6    0.006    0.006    0.006    0.006
 make_dense_data                    132 13.6    0.002    0.004    0.004    0.006
 initialize_moments                   1  3.0    0.000    0.000    0.005    0.005
 get_fft_scratch                    821 14.1    0.004    0.005    0.004    0.005
 compute_d_lp_dgemm                 113 11.0    0.004    0.005    0.004    0.005
 mp_rank_compare                    820 14.1    0.004    0.005    0.004    0.005
 mp_maxloc_dv                      1503  1.0    0.004    0.005    0.004    0.005
 dbcsr_filter_anytype               207 10.0    0.001    0.001    0.004    0.004
 ewald_ddapc_pot                      1  8.0    0.003    0.004    0.004    0.004
 Fourier_transform_w_to_t            30  9.0    0.000    0.000    0.004    0.004
 compute_proj_mo_on_kind              1  7.0    0.000    0.000    0.004    0.004
 cp_fm_scale_and_add                935  9.9    0.004    0.004    0.004    0.004
 mp_comm_size                     19293  4.5    0.004    0.004    0.004    0.004
 mp_bcast_b_src                      95  8.6    0.003    0.004    0.003    0.004
 compute_V_MinvVsqrt                  1  9.0    0.000    0.000    0.004    0.004
 mp_comm_rank                     19293  4.5    0.003    0.004    0.003    0.004
 initialize_hartree_potential         1  3.0    0.000    0.000    0.004    0.004
 rt_bse_ri_rs_ensure_V_grid           1  4.0    0.000    0.000    0.004    0.004
 grid_free_task_list                  1  2.0    0.003    0.004    0.003    0.004
 mp_max_d                           253  9.6    0.003    0.004    0.003    0.004
 topology_control                     1  2.0    0.000    0.000    0.003    0.003
 evaluate_core_matrix_traces         45  7.0    0.000    0.000    0.003    0.003
 pw_pool_create_pw                 1427 10.8    0.002    0.002    0.003    0.003
 dbcsr_dot                           91  9.0    0.001    0.001    0.003    0.003
 write_mo_set_low                     3  7.0    0.000    0.000    0.003    0.003
 calculate_ptrace_kp                 90  8.0    0.000    0.000    0.003    0.003
 create_product_matrix              334 10.6    0.001    0.001    0.003    0.003
 coordinate_control                   1  3.0    0.001    0.001    0.003    0.003
 self_consistency_check              45  6.0    0.000    0.000    0.003    0.003
 mp_min_d                             5 10.0    0.002    0.003    0.002    0.003
 qs_create_task_list                  1  6.0    0.000    0.000    0.002    0.003
 generate_qs_task_list                1  7.0    0.001    0.001    0.002    0.003
 cp_sm_mix                           45  7.0    0.000    0.000    0.002    0.003
 cp_cfm_cholesky_decompose            2  8.0    0.003    0.003    0.003    0.003
 mp_sum_i                           408  9.9    0.003    0.003    0.003    0.003
 transform_ao_to_mo_covariant_f       6  4.0    0.000    0.000    0.003    0.003
 initialize_rtbse_env                 1  3.0    0.003    0.003    0.003    0.003
 ddapc_eval_AmI                       1  8.0    0.001    0.002    0.002    0.003
 create_tensors                       1  8.0    0.000    0.000    0.002    0.002
 cp_fm_redistribute_start            49  9.0    0.000    0.000    0.001    0.002
 distribute_tasks                     1  8.0    0.000    0.000    0.001    0.002
 mp_bcast_av                        752  1.0    0.002    0.002    0.002    0.002
 mp_max_i                           628  1.8    0.002    0.002    0.002    0.002
 build_core_hamiltonian_matrix        1  5.0    0.000    0.000    0.002    0.002
 apply_delta_pulse_MO                 1  3.0    0.000    0.000    0.002    0.002
 propagate_density                    1  4.0    0.000    0.000    0.002    0.002
 bch_propagate                        1  5.0    0.000    0.000    0.002    0.002
 mp_isend_dm3                       932 12.5    0.002    0.002    0.002    0.002
 coordinate_control_READ_COORDI       1  4.0    0.000    0.000    0.002    0.002
 read_coordinate_xyz                  1  5.0    0.000    0.000    0.002    0.002
 load_balance_distributed             2  9.0    0.000    0.000    0.001    0.002
 ddapc_eval_gfunc                     1  8.0    0.002    0.002    0.002    0.002
 external_control                    45  6.0    0.000    0.000    0.002    0.002
 atomic_basis_at_grid_point           1  8.0    0.000    0.000    0.002    0.002
 get_current_loads                   12 10.0    0.000    0.000    0.001    0.002
 analyt_conti_and_print               1 10.0    0.000    0.002    0.000    0.002
 build_gram_jacobi_blas_dsyrk         2 11.0    0.001    0.002    0.001    0.002
 compute_load_list                    4 10.0    0.000    0.000    0.001    0.002
 mp_alltoall_l                       13 10.9    0.001    0.002    0.001    0.002
 compute_Z_lP_standard_dpotrs         2 10.0    0.001    0.002    0.001    0.002
 calculate_first_density_matrix       1  6.0    0.000    0.000    0.002    0.002
 mp_cart_get                        862 14.1    0.001    0.002    0.001    0.002
 fm_write                             1  9.0    0.000    0.001    0.001    0.002
 pw_pool_give_back_pw              1601 10.8    0.001    0.001    0.001    0.001
 dbt_distribution_new_expert         10 11.5    0.000    0.000    0.001    0.001
 build_2c_coulomb_matrix_kp           1 10.0    0.000    0.000    0.001    0.001
 multi_fft                            1  4.0    0.001    0.001    0.001    0.001
 lattice_sum                          1 11.0    0.000    0.000    0.001    0.001
 create_3c_t                          2  9.0    0.000    0.000    0.001    0.001
 compute_max_radius                   1  6.0    0.001    0.001    0.001    0.001
 pw_poisson_rebuild                  46 10.0    0.001    0.001    0.001    0.001
 mp_irecv_dm3                       932 12.5    0.001    0.001    0.001    0.001
 print_matrix_occupation              3  9.0    0.000    0.000    0.001    0.001
 mp_isendrecv_dv                   1380 14.0    0.001    0.001    0.001    0.001
 calculate_atomic_block_dm            1  7.0    0.000    0.000    0.001    0.001
 compute_v_transl                     1 12.0    0.001    0.001    0.001    0.001
 cp_cfm_triangular_multiply           3  8.0    0.001    0.001    0.001    0.001
 ab_contract                       5068  9.2    0.001    0.001    0.001    0.001
 dbt_tas_distribution_new            10 12.5    0.001    0.001    0.001    0.001
 qs_scf_write_mos                    46  6.0    0.001    0.001    0.001    0.001
 allocate_and_fill_fm_ks_fm_s         1  7.0    0.000    0.000    0.001    0.001
 mulliken_population_analysis         1  7.0    0.000    0.000    0.001    0.001
 build_overlap_matrix_low             1  6.0    0.001    0.001    0.001    0.001
 create_2c_t                          1  9.0    0.000    0.000    0.001    0.001
 build_local_moment_matrix            2  4.0    0.001    0.001    0.001    0.001
 create_2c_tensor                     3 10.0    0.000    0.000    0.001    0.001
 pw_create_c1d                      829 11.6    0.001    0.001    0.001    0.001
 create_3c_tensor                     2 10.0    0.000    0.000    0.001    0.001
 init_cube_info                       4  6.0    0.001    0.001    0.001    0.001
 check_positive_definite_overla       1  7.0    0.000    0.000    0.001    0.001
 cp_fm_copy_general                   4  8.2    0.000    0.000    0.001    0.001
 pw_grid_distribute                   4  8.0    0.001    0.001    0.001    0.001
 scf_c_write_parameters               1  3.0    0.000    0.001    0.000    0.001
 build_A_matrix                       1  9.0    0.001    0.001    0.001    0.001
 cp_fm_to_fm_matrix                 205 10.4    0.001    0.001    0.001    0.001
 get_rpa_minimax_coeff_larger_g       1 10.0    0.000    0.001    0.000    0.001
 mp_sum_b                           195 10.8    0.001    0.001    0.001    0.001
 cp_cfm_triangular_invert             1  8.0    0.001    0.001    0.001    0.001
 mp_sum_lv                          148  2.2    0.001    0.001    0.001    0.001
 fill_phi_for_atom                    2  9.0    0.000    0.000    0.000    0.001
 cp_fm_gemm                           3  9.0    0.001    0.001    0.001    0.001
 dbt_create_new                       5 11.0    0.000    0.000    0.001    0.001
 pw_create_r3d                      823 11.7    0.000    0.001    0.000    0.001
 cp_fm_start_copy_general             4  9.2    0.000    0.000    0.000    0.001
 cp_fm_triangular_multiply            3 11.0    0.000    0.001    0.000    0.001
 create_fm_W_MIC_time                 1  9.0    0.000    0.000    0.000    0.001
 dbt_tas_create_split                 6 13.2    0.000    0.000    0.001    0.001
 dbt_tas_create_split_rows_or_c       6 14.2    0.000    0.000    0.000    0.001
 calculate_atom                       2  8.0    0.000    0.000    0.000    0.001
 calculate_atom_restricted            2  9.0    0.000    0.000    0.000    0.001
 build_core_ppl                       1  6.0    0.000    0.001    0.000    0.001
 print_ri_rs_memory_estimate          1  8.0    0.000    0.000    0.000    0.000
 dbcsr_make_dists_dense              66 10.6    0.000    0.000    0.000    0.000
 qs_scf_loop_print                   45  6.0    0.000    0.000    0.000    0.000
 mp_comm_split_direct                 8 13.6    0.000    0.000    0.000    0.000
 cp_fm_triangular_invert              1 11.0    0.000    0.000    0.000    0.000
 mp_bcast_iv_src                     26  7.1    0.000    0.000    0.000    0.000
 mp_bcast_iv                        159  2.8    0.000    0.000    0.000    0.000
 dbt_pgrid_create_expert             13 11.9    0.000    0.000    0.000    0.000
 build_kinetic_matrix_low             1  6.0    0.000    0.000    0.000    0.000
 reserve_blocks_within_radius         1  5.0    0.000    0.000    0.000    0.000
 rs_grid_create_descriptor            4  6.0    0.000    0.000    0.000    0.000
 mp_sum_im                            8  7.5    0.000    0.000    0.000    0.000
 populate_C_active                    1  3.0    0.000    0.000    0.000    0.000
 cp_fm_to_fm_submat_general           1  4.0    0.000    0.000    0.000    0.000
 allocate_matrices                    1  9.0    0.000    0.000    0.000    0.000
 fm_add_on_diag                      60 10.0    0.000    0.000    0.000    0.000
 fft3d_s                              1  2.0    0.000    0.000    0.000    0.000
 classify_z_lp_atoms                  1 10.0    0.000    0.000    0.000    0.000
 cfm_ikp_from_fm_Gamma                3  7.3    0.000    0.000    0.000    0.000
 create_mat_munu                      1 10.0    0.000    0.000    0.000    0.000
 connectivity_control                 1  3.0    0.000    0.000    0.000    0.000
 mp_comm_dup                         10 11.9    0.000    0.000    0.000    0.000
 set_mo_occupation_2                 45  7.0    0.000    0.000    0.000    0.000
 cp_dbcsr_alloc_block_from_nbl       14  7.1    0.000    0.000    0.000    0.000
 init_interaction_radii               3  7.3    0.000    0.000    0.000    0.000
 delete_unnecessary_files             1  9.0    0.000    0.000    0.000    0.000
 distribution_3d_create               1 10.0    0.000    0.000    0.000    0.000
 qs_efield_local_operator            46  9.0    0.000    0.000    0.000    0.000
 bs_env_release                       1  2.0    0.000    0.000    0.000    0.000
 build_core_ppnl                      1  6.0    0.000    0.000    0.000    0.000
 mp_allgather_i                      10 10.4    0.000    0.000    0.000    0.000
 cp_fm_finish_copy_general            4  9.2    0.000    0.000    0.000    0.000
 store_Z_lP_columns                   2 10.0    0.000    0.000    0.000    0.000
 continuation_pade                   16 11.0    0.000    0.000    0.000    0.000
 mp_max_r                             1  2.0    0.000    0.000    0.000    0.000
 safe_delete                         60 10.0    0.000    0.000    0.000    0.000
 distribution_2d_create               2 11.0    0.000    0.000    0.000    0.000
 get_sigma_c_newton_pade             16 12.0    0.000    0.000    0.000    0.000
 write_qs_kind_set                    1  3.0    0.000    0.000    0.000    0.000
 topology_generate_bond               1  4.0    0.000    0.000    0.000    0.000
 optimize_load_list                   2 10.0    0.000    0.000    0.000    0.000
 mp_mem_used_per_rank_GB              2  9.5    0.000    0.000    0.000    0.000
 dbcsr_copy_into_existing             1  7.0    0.000    0.000    0.000    0.000
 cp_cfm_norm                          6  5.7    0.000    0.000    0.000    0.000
 set_mo_occupation_1                 46  8.0    0.000    0.000    0.000    0.000
 set_parallelization_parameters       1  9.0    0.000    0.000    0.000    0.000
 create_local_tasks                   1  9.0    0.000    0.000    0.000    0.000
 dbcsr_index_compact                152 11.4    0.000    0.000    0.000    0.000
 mpools_rebuild_fm_pools              1  4.0    0.000    0.000    0.000    0.000
 get_parameters_from_qs_env           1  7.0    0.000    0.000    0.000    0.000
 build_qs_neighbor_lists              1  5.0    0.000    0.000    0.000    0.000
 dbcsr_index_prune_deleted          165 12.6    0.000    0.000    0.000    0.000
 rs_grid_create                       6  6.7    0.000    0.000    0.000    0.000
 offload_create_buffer                8  7.8    0.000    0.000    0.000    0.000
 dbt_destroy                          5  3.0    0.000    0.000    0.000    0.000
 restraint_control                    1  3.0    0.000    0.000    0.000    0.000
 topology_generate_bond_3             1  5.0    0.000    0.000    0.000    0.000
 cp_fm_set_all                       24  5.3    0.000    0.000    0.000    0.000
 build_fist_neighbor_lists            1  6.0    0.000    0.000    0.000    0.000
 calculate_atom_vxc_lda              11 10.0    0.000    0.000    0.000    0.000
 qs_env_rebuild_rho                   1  6.0    0.000    0.000    0.000    0.000
 pw_grid_allocate                     4  8.0    0.000    0.000    0.000    0.000
 mp_allgather_l                      13 10.9    0.000    0.000    0.000    0.000
 atom_int_setup                       2  8.0    0.000    0.000    0.000    0.000
 qs_scf_ensure_mos                    1  4.0    0.000    0.000    0.000    0.000
 mp_alltoall_l11v                     1 10.0    0.000    0.000    0.000    0.000
 print_Z_lP_progress                  3 10.0    0.000    0.000    0.000    0.000
 grid_create_task_list                1  8.0    0.000    0.000    0.000    0.000
 time_to_freq                         1 10.0    0.000    0.000    0.000    0.000
 build_neighbor_lists                 1  7.0    0.000    0.000    0.000    0.000
 qs_rho_rebuild                       1  7.0    0.000    0.000    0.000    0.000
 de_init_bs_env                       1  8.0    0.000    0.000    0.000    0.000
 load_balance_replicated              1  9.0    0.000    0.000    0.000    0.000
 mp_bcast_i3                          2 11.0    0.000    0.000    0.000    0.000
 wfs_update                           1  4.0    0.000    0.000    0.000    0.000
 setup_kpoints_DOS_large_cell_G       1  7.0    0.000    0.000    0.000    0.000
 check_for_derivatives               45 11.0    0.000    0.000    0.000    0.000
 build_neighbor_lists_RPA_2c_nl       4  8.2    0.000    0.000    0.000    0.000
 dbcsr_frobenius_norm                 1  5.0    0.000    0.000    0.000    0.000
 build_3c_neighbor_lists              1 10.0    0.000    0.000    0.000    0.000
 dbcsr_verify_matrix                 45  9.0    0.000    0.000    0.000    0.000
 cp_ddapc_apply_RF                   46 10.0    0.000    0.000    0.000    0.000
 dbt_tas_create_new                   5 12.0    0.000    0.000    0.000    0.000
 kpoint_init_cell_index_simple        1  8.0    0.000    0.000    0.000    0.000
 lattice_sum_R_to_k                   8 12.0    0.000    0.000    0.000    0.000
 kpoint_init_cell_index               1  9.0    0.000    0.000    0.000    0.000
 topology_connectivity_pack           1  3.0    0.000    0.000    0.000    0.000
 qs_scf_ensure_work_matrices          1  4.0    0.000    0.000    0.000    0.000
 mp_sum_partial_im                    2 11.0    0.000    0.000    0.000    0.000
 init_qs_kind_set                     1  3.0    0.000    0.000    0.000    0.000
 distribute_molecules_2d              2  7.5    0.000    0.000    0.000    0.000
 print_header_and_input_paramet       1  8.0    0.000    0.000    0.000    0.000
 init_qs_kind                         2  4.0    0.000    0.000    0.000    0.000
 cp_fm_to_fm_columns                  3  7.0    0.000    0.000    0.000    0.000
 initialize_singleparticle_hami       1  3.0    0.000    0.000    0.000    0.000
 mp_sum_root_iv                       2 11.0    0.000    0.000    0.000    0.000
 write_dft_control                    1  3.0    0.000    0.000    0.000    0.000
 init_orb_basis_set                   4  5.0    0.000    0.000    0.000    0.000
 write_orbpop                         1  8.0    0.000    0.000    0.000    0.000
 check_diag                          49  8.0    0.000    0.000    0.000    0.000
 write_mo_dependent_results           1  6.0    0.000    0.000    0.000    0.000
 print_atomic_charges                46 13.0    0.000    0.000    0.000    0.000
 write_qs_particle_coordinates        1  3.0    0.000    0.000    0.000    0.000
 calculate_ecore_overlap              1  5.0    0.000    0.000    0.000    0.000
 atom2d_build                         8  9.0    0.000    0.000    0.000    0.000
 qs_ks_did_change                    47  6.0    0.000    0.000    0.000    0.000
 resolve_grid_panels                  4  9.2    0.000    0.000    0.000    0.000
 allocate_blocks_v_L                  2 12.0    0.000    0.000    0.000    0.000
 distribution_3d_destroy              1  9.0    0.000    0.000    0.000    0.000
 qs_scf_initial_info                  1  5.0    0.000    0.000    0.000    0.000
 connectivity_control_check_ele       1  4.0    0.000    0.000    0.000    0.000
 atom_ppint_setup                     2  8.0    0.000    0.000    0.000    0.000
 qs_efield_berry_phase               46  9.0    0.000    0.000    0.000    0.000
 topology_generate_bond_4             1  5.0    0.000    0.000    0.000    0.000
 distribute_molecules_1d              2  7.0    0.000    0.000    0.000    0.000
 build_neighbor_lists_sab_orb         1  6.0    0.000    0.000    0.000    0.000
 allocate_tmp                         1 11.0    0.000    0.000    0.000    0.000
 initialize_maximum_timestep          1  3.0    0.000    0.000    0.000    0.000
 scf_env_cleanup                      1  4.0    0.000    0.000    0.000    0.000
 init_cphi_and_sphi                   4  6.0    0.000    0.000    0.000    0.000
 mixing_allocate                      1  4.0    0.000    0.000    0.000    0.000
 mp_max_iv                            1 10.0    0.000    0.000    0.000    0.000
 build_neighbor_lists_GW_3c_nl_       1 11.0    0.000    0.000    0.000    0.000
 dbt_distribution_destroy            10 11.5    0.000    0.000    0.000    0.000
 scf_c_read_parameters                1  3.0    0.000    0.000    0.000    0.000
 topology_generate_bond_2             1  5.0    0.000    0.000    0.000    0.000
 allocate_blocks_v_kp                 1 12.0    0.000    0.000    0.000    0.000
 cp_fm_redistribute_end              49  9.0    0.000    0.000    0.000    0.000
 get_n_ao_in_sphere                  52 10.0    0.000    0.000    0.000    0.000
 cp_result_value_p_reallocate         4  7.8    0.000    0.000    0.000    0.000
 build_neighbor_lists_sab_core        1  6.0    0.000    0.000    0.000    0.000
 get_basis_offsets                    1  9.0    0.000    0.000    0.000    0.000
 create_grid_atom                     2  8.0    0.000    0.000    0.000    0.000
 build_neighbor_lists_sap_ppnl        1  6.0    0.000    0.000    0.000    0.000
 reallocate_ft_traces                 1  4.0    0.000    0.000    0.000    0.000
 scale_rows_by_diag                   4 10.0    0.000    0.000    0.000    0.000
 build_neighbor_lists_sac_ppl         1  6.0    0.000    0.000    0.000    0.000
 get_all_VBM_CBM_bandgaps             1 10.0    0.000    0.000    0.000    0.000
 build_neighbor_lists_sab_orb_s       1 11.0    0.000    0.000    0.000    0.000
 write_band_edges                     3  7.0    0.000    0.000    0.000    0.000
 write_particle_distances             1  3.0    0.000    0.000    0.000    0.000
 write_qs_control                     1  3.0    0.000    0.000    0.000    0.000
 topology_coordinate_pack             1  3.0    0.000    0.000    0.000    0.000
 mp_min_lv                            4  8.0    0.000    0.000    0.000    0.000
 qs_scf_post_charges                  1  5.0    0.000    0.000    0.000    0.000
 qs_scf_print_scf_summary             1  6.0    0.000    0.000    0.000    0.000
 create_destination_list              2 10.0    0.000    0.000    0.000    0.000
 xc_libxc_check_functional            2  4.0    0.000    0.000    0.000    0.000
 print_gw_rirs_input                  1  9.0    0.000    0.000    0.000    0.000
 read_qs_section                      1  3.0    0.000    0.000    0.000    0.000
 fix_atom_control                     1  3.0    0.000    0.000    0.000    0.000
 mp_cart_coords                      64  9.0    0.000    0.000    0.000    0.000
 setup_AO_and_RI_basis_set            1  8.0    0.000    0.000    0.000    0.000
 check_scf_gw_level_ordering          1 11.0    0.000    0.000    0.000    0.000
 topology_set_atm_mass                1  4.0    0.000    0.000    0.000    0.000
 read_bandstructure_input_param       1  7.0    0.000    0.000    0.000    0.000
 build_neighbor_lists_GW_3c_nl_       1 11.0    0.000    0.000    0.000    0.000
 mp_bcast_i                           6 15.2    0.000    0.000    0.000    0.000
 cp_cfm_to_cfm_columns                1  8.0    0.000    0.000    0.000    0.000
 mp_max_lv                            4  8.0    0.000    0.000    0.000    0.000
 make_basic_distribution              2  8.5    0.000    0.000    0.000    0.000
 precompute_ri_rs_radii               1  8.0    0.000    0.000    0.000    0.000
 read_tddfpt2_control                 1  3.0    0.000    0.000    0.000    0.000
 tddfpt2_control_release              2  2.0    0.000    0.000    0.000    0.000
 mp_min_i                             4  6.0    0.000    0.000    0.000    0.000
 set_blocks_to_matrix_v_kp            1 12.0    0.000    0.000    0.000    0.000
 mp_bcast_im                          8 10.2    0.000    0.000    0.000    0.000
 mp_dims_create                       3 11.0    0.000    0.000    0.000    0.000
 scf_env_release                      1  2.0    0.000    0.000    0.000    0.000
 topology_generate_molecule           1  4.0    0.000    0.000    0.000    0.000
 read_smeagol_control                 1  3.0    0.000    0.000    0.000    0.000
 offload_free_buffer                  8  3.5    0.000    0.000    0.000    0.000
 mp_bcast_av_src                      1  7.0    0.000    0.000    0.000    0.000
 mp_sum_lm3                           1  2.0    0.000    0.000    0.000    0.000
 build_neighbor_lists_sab_all         1  6.0    0.000    0.000    0.000    0.000
 set_heuristic_parameters             2  7.5    0.000    0.000    0.000    0.000
 grid_free_basis_set                  2  2.0    0.000    0.000    0.000    0.000
 wfi_extrapolate                      1  6.0    0.000    0.000    0.000    0.000
 set_RI_basis_function_indices        1  9.0    0.000    0.000    0.000    0.000
 balance_global_list                  2 11.0    0.000    0.000    0.000    0.000
 determine_active_mo_window           1  3.0    0.000    0.000    0.000    0.000
 deallocate_blocks_v_L                2 12.0    0.000    0.000    0.000    0.000
 write_molecule_kind_set              1  3.0    0.000    0.000    0.000    0.000
 print_header                         1  7.0    0.000    0.000    0.000    0.000
 check_generate_mol                   1  6.0    0.000    0.000    0.000    0.000
 qs_scf_post_kubo_transport           1  7.0    0.000    0.000    0.000    0.000
 sort_neighbor_lists                  1  7.0    0.000    0.000    0.000    0.000
 dump_info_core_hamiltonian           1  6.0    0.000    0.000    0.000    0.000
 diag                                 5  9.0    0.000    0.000    0.000    0.000
 topology_constraint_pack             1  3.0    0.000    0.000    0.000    0.000
 init_scf_loop                        1  5.0    0.000    0.000    0.000    0.000
 get_factor_and_xyz_min_max           1 12.0    0.000    0.000    0.000    0.000
 setup_kpoints_chi_eps_W              1  9.0    0.000    0.000    0.000    0.000
 sg_erf                               5  9.0    0.000    0.000    0.000    0.000
 init_evGW0                           1  9.0    0.000    0.000    0.000    0.000
 contract2                           15  9.0    0.000    0.000    0.000    0.000
 check_cp2k_input                     1  2.0    0.000    0.000    0.000    0.000
 smeagol_control_release              1  2.0    0.000    0.000    0.000    0.000
 resp_fit                             1  6.0    0.000    0.000    0.000    0.000
 print_sphere_cutoff_table            1 10.0    0.000    0.000    0.000    0.000
 read_topology_section                1  3.0    0.000    0.000    0.000    0.000
 initialize_density_matrix            1  3.0    0.000    0.000    0.000    0.000
 topology_connectivity_pack_2         1  4.0    0.000    0.000    0.000    0.000
 qs_scf_post_ps_implicit              1  7.0    0.000    0.000    0.000    0.000
 spatial_atom_order                   1  9.0    0.000    0.000    0.000    0.000
 cp_result_value_release             10  6.3    0.000    0.000    0.000    0.000
 topology_connectivity_pack_5         1  4.0    0.000    0.000    0.000    0.000
 topology_connectivity_pack_10        1  4.0    0.000    0.000    0.000    0.000
 qs_scf_post_transport                1  7.0    0.000    0.000    0.000    0.000
 contract2add                        10  9.0    0.000    0.000    0.000    0.000
 lpt_assign_atoms                     1 10.0    0.000    0.000    0.000    0.000
 ec_env_release                       1  2.0    0.000    0.000    0.000    0.000
 grid_create_basis_set                2  8.0    0.000    0.000    0.000    0.000
 topology_connectivity_pack_4         1  4.0    0.000    0.000    0.000    0.000
 fist_neighbor_init                   1  8.0    0.000    0.000    0.000    0.000
 cp_result_value_copy                 6  8.5    0.000    0.000    0.000    0.000
 cp_fm_cleanup_copy_general           4  9.2    0.000    0.000    0.000    0.000
 mp_sum_rv                            1  2.0    0.000    0.000    0.000    0.000
 compute_xkp                          3  9.3    0.000    0.000    0.000    0.000
 topology_generate_onfo               1  4.0    0.000    0.000    0.000    0.000
 mp_min_rv                            1  2.0    0.000    0.000    0.000    0.000
 cp_result_release                    1  2.0    0.000    0.000    0.000    0.000
 scf_c_create                         1  3.0    0.000    0.000    0.000    0.000
 read_mgrid_section                   1  3.0    0.000    0.000    0.000    0.000
 qs_scf_post_elf                      1  5.0    0.000    0.000    0.000    0.000
 calculate_ecore_self                 1  5.0    0.000    0.000    0.000    0.000
 topology_constraint_pack_1           1  4.0    0.000    0.000    0.000    0.000
 read_rirs_input                      1  9.0    0.000    0.000    0.000    0.000
 topology_connectivity_pack_13        1  4.0    0.000    0.000    0.000    0.000
 write_symmetry                       1  3.0    0.000    0.000    0.000    0.000
 cp_result_value_create              10  8.6    0.000    0.000    0.000    0.000
 scf_env_create                       1  4.0    0.000    0.000    0.000    0.000
 linres_calculation_low               1  5.0    0.000    0.000    0.000    0.000
 topology_generate_bond_6             1  5.0    0.000    0.000    0.000    0.000
 topology_connectivity_pack_12        1  4.0    0.000    0.000    0.000    0.000
 topology_connectivity_pack_14        1  4.0    0.000    0.000    0.000    0.000
 topology_connectivity_pack_11        1  4.0    0.000    0.000    0.000    0.000
 topology_generate_bond_1             1  5.0    0.000    0.000    0.000    0.000
 wfi_create                           1  3.0    0.000    0.000    0.000    0.000
 kpoint_initialize                    1  2.0    0.000    0.000    0.000    0.000
 get_i_j_atoms                        2 10.0    0.000    0.000    0.000    0.000
 topology_molecules_check             1  4.0    0.000    0.000    0.000    0.000
 topology_connectivity_pack_6         1  4.0    0.000    0.000    0.000    0.000
 deallocate_tmp                       1 11.0    0.000    0.000    0.000    0.000
 topology_connectivity_pack_9         1  4.0    0.000    0.000    0.000    0.000
 transport_current                    1  8.0    0.000    0.000    0.000    0.000
 mp_sum_r                             1  2.0    0.000    0.000    0.000    0.000
 atom2d_cleanup                       8  9.0    0.000    0.000    0.000    0.000
 get_exp_minimax_coeff_gw             1 10.0    0.000    0.000    0.000    0.000
 write_structure_data                 1  3.0    0.000    0.000    0.000    0.000
 deallocate_blocks_v_kp               1 12.0    0.000    0.000    0.000    0.000
 external_c_potential                 1  5.0    0.000    0.000    0.000    0.000
 topology_coordinate_pack_7a          1  4.0    0.000    0.000    0.000    0.000
 mp_max_rv                            1  2.0    0.000    0.000    0.000    0.000
 topology_generate_molecule_PAR       1  5.0    0.000    0.000    0.000    0.000
 cp_fm_scale                          2  6.5    0.000    0.000    0.000    0.000
 print_cutoff_radius_input            4 10.0    0.000    0.000    0.000    0.000
 topology_connectivity_pack_1         1  4.0    0.000    0.000    0.000    0.000
 get_VBM_CBM_bandgaps                 3 11.0    0.000    0.000    0.000    0.000
 topology_coordinate_pack_5           1  4.0    0.000    0.000    0.000    0.000
 allocate_GW_eigenvalues              1  8.0    0.000    0.000    0.000    0.000
 topology_connectivity_pack_7         1  4.0    0.000    0.000    0.000    0.000
 metadyn_read                         1  2.0    0.000    0.000    0.000    0.000
 topology_coordinate_pack_1           1  4.0    0.000    0.000    0.000    0.000
 topology_connectivity_pack_3         1  4.0    0.000    0.000    0.000    0.000
 read_evgw0_input                     1  9.0    0.000    0.000    0.000    0.000
 cp_result_value_init                 4  7.8    0.000    0.000    0.000    0.000
 mp_isend_im2                         8 10.2    0.000    0.000    0.000    0.000
 wfn_mix                              1  5.0    0.000    0.000    0.000    0.000
 write_s_matrix_csr                   1  7.0    0.000    0.000    0.000    0.000
 write_adjacency_matrix               1  7.0    0.000    0.000    0.000    0.000
 write_gto_basis_sets                 1  3.0    0.000    0.000    0.000    0.000
 write_ks_matrix_csr                  1  7.0    0.000    0.000    0.000    0.000
 qs_scf_post_local_energy             1  7.0    0.000    0.000    0.000    0.000
 write_dm_binary_restart              1  7.0    0.000    0.000    0.000    0.000
 write_hcore_matrix_csr               1  7.0    0.000    0.000    0.000    0.000
 square_mesh                          2 11.0    0.000    0.000    0.000    0.000
 write_p_matrix_csr                   1  7.0    0.000    0.000    0.000    0.000
 topology_coordinate_pack_11          1  4.0    0.000    0.000    0.000    0.000
 topology_connectivity_pack_12_       1  4.0    0.000    0.000    0.000    0.000
 qs_scf_post_xray                     1  5.0    0.000    0.000    0.000    0.000
 qs_scf_post_molopt                   1  5.0    0.000    0.000    0.000    0.000
 topology_connectivity_pack_13_       1  4.0    0.000    0.000    0.000    0.000
 qs_scf_post_efg                      1  5.0    0.000    0.000    0.000    0.000
 qs_scf_post_epr                      1  5.0    0.000    0.000    0.000    0.000
 allocate_qs_energy                   1  3.0    0.000    0.000    0.000    0.000
 qs_scf_post_moments                  1  5.0    0.000    0.000    0.000    0.000
 qs_scf_post_local_stress             1  7.0    0.000    0.000    0.000    0.000
 read_binary_coordinates              1  3.0    0.000    0.000    0.000    0.000
 write_mos_molden                     1  7.0    0.000    0.000    0.000    0.000
 topology_constraint_pack_6           1  4.0    0.000    0.000    0.000    0.000
 plan_grid_panels                     1 10.0    0.000    0.000    0.000    0.000
 mp_irecv_im2                         8 10.2    0.000    0.000    0.000    0.000
 correct_obvious_fitting_fails        1 11.0    0.000    0.000    0.000    0.000
 ps_implicit_release                  2  4.0    0.000    0.000    0.000    0.000
 create_local_fixd_list               1  4.0    0.000    0.000    0.000    0.000
 qs_scf_post_et                       1  5.0    0.000    0.000    0.000    0.000
 topology_connectivity_pack_1.1       1  4.0    0.000    0.000    0.000    0.000
 topology_muc                         1  4.0    0.000    0.000    0.000    0.000
 add_external_potential               1  3.0    0.000    0.000    0.000    0.000
 init_harris_env                      1  3.0    0.000    0.000    0.000    0.000
 topology_connectivity_pack_11_       1  4.0    0.000    0.000    0.000    0.000
 topology_generate_bend               1  4.0    0.000    0.000    0.000    0.000
 read_auto_ri_input                   1  9.0    0.000    0.000    0.000    0.000
 topology_coordinate_pack_89          1  4.0    0.000    0.000    0.000    0.000
 tddfpt2_control_create               2  3.0    0.000    0.000    0.000    0.000
 auto_ri_release                      1  3.0    0.000    0.000    0.000    0.000
 atom_relint_setup                    2  8.0    0.000    0.000    0.000    0.000
 topology_connectivity_pack_14_       1  4.0    0.000    0.000    0.000    0.000
 calculate_ecore_efield               1  5.0    0.000    0.000    0.000    0.000
 handle_ext_restart                   1  3.0    0.000    0.000    0.000    0.000
 topology_coordinate_pack_6           1  4.0    0.000    0.000    0.000    0.000
 topology_constraint_pack_7           1  4.0    0.000    0.000    0.000    0.000
 topology_coordinate_pack_4           1  4.0    0.000    0.000    0.000    0.000
 init_ec_env                          1  2.0    0.000    0.000    0.000    0.000
 fp_env_read                          1  2.0    0.000    0.000    0.000    0.000
 smeagol_control_create               1  3.0    0.000    0.000    0.000    0.000
 rt_bse_ri_rs_ensure_grid             2  5.0    0.000    0.000    0.000    0.000
 excited_state_energy                 1  4.0    0.000    0.000    0.000    0.000
 wannier90_interface                  1  5.0    0.000    0.000    0.000    0.000
 check_qs_kind_set                    1  3.0    0.000    0.000    0.000    0.000
 topology_generate_bond_7             1  5.0    0.000    0.000    0.000    0.000
 external_e_potential                 1  5.0    0.000    0.000    0.000    0.000
 pw_env_create                        1  5.0    0.000    0.000    0.000    0.000
 rescale_forces                       1  3.0    0.000    0.000    0.000    0.000
 reset_and_clean_bs_env               1  9.0    0.000    0.000    0.000    0.000
 compute_matrix_w                     1  4.0    0.000    0.000    0.000    0.000
 external_read_density                1  5.0    0.000    0.000    0.000    0.000
 topology_coordinate_pack_3           1  4.0    0.000    0.000    0.000    0.000
 topology_coordinate_pack_2           1  4.0    0.000    0.000    0.000    0.000
 topology_coordinate_pack_7b          1  4.0    0.000    0.000    0.000    0.000
 topology_generate_impr               1  4.0    0.000    0.000    0.000    0.000
 topology_generate_ub                 1  4.0    0.000    0.000    0.000    0.000
 topology_constraint_pack_2           1  4.0    0.000    0.000    0.000    0.000
 topology_connectivity_pack_8         1  4.0    0.000    0.000    0.000    0.000
 topology_constraint_pack_5           1  4.0    0.000    0.000    0.000    0.000
 fp_env_write                         1  2.0    0.000    0.000    0.000    0.000
 cp_result_create                     1  2.0    0.000    0.000    0.000    0.000
 topology_constraint_pack_3           1  4.0    0.000    0.000    0.000    0.000
 topology_constraint_pack_4           1  4.0    0.000    0.000    0.000    0.000
 topology_coordinate_pack_10          1  4.0    0.000    0.000    0.000    0.000
 topology_generate_dihe               1  4.0    0.000    0.000    0.000    0.000
 cleanup_scf_loop                     1  6.0    0.000    0.000    0.000    0.000
 -------------------------------------------------------------------------------

 The number of warnings for this run is : 2
 
 -------------------------------------------------------------------------------
  **** **** ******  **  PROGRAM ENDED AT                 2026-09-30 16:28:16.682
 ***** ** ***  *** **   PROGRAM RAN ON                                    cn0946
 **    ****   ******    PROGRAM RAN BY                                  metdyn07
 ***** **    ** ** **   PROGRAM PROCESS ID                               2693654
  **** **  *******  **  PROGRAM STOPPED IN /scratch/hpc-prf-metdyn/metdyn07_Rita
                                           j/project-max-rtbse/g0w0_rtbse_compar
                                           ison_tuned/1/rirs_opt/gterm
