cpu-bind=MASK - n2lcn0158, task 32  0 [829623]: mask 0x|BBBBBBBB|BBBBBBBB||--------|--------||--------|--------||--------|--------||||--------|--------||--------|--------||--------|--------||--------|--------| set
cpu-bind=MASK - n2lcn0158, task 33  1 [829624]: mask 0x|--------|--------||BBBBBBBB|BBBBBBBB||--------|--------||--------|--------||||--------|--------||--------|--------||--------|--------||--------|--------| set
cpu-bind=MASK - n2lcn0163, task 40  0 [500533]: mask 0x|BBBBBBBB|BBBBBBBB||--------|--------||--------|--------||--------|--------||||--------|--------||--------|--------||--------|--------||--------|--------| set
cpu-bind=MASK - n2lcn0158, task 34  2 [829625]: mask 0x|--------|--------||--------|--------||BBBBBBBB|BBBBBBBB||--------|--------||||--------|--------||--------|--------||--------|--------||--------|--------| set
cpu-bind=MASK - n2lcn0163, task 41  1 [500534]: mask 0x|--------|--------||BBBBBBBB|BBBBBBBB||--------|--------||--------|--------||||--------|--------||--------|--------||--------|--------||--------|--------| set
cpu-bind=MASK - n2lcn0158, task 35  3 [829626]: mask 0x|--------|--------||--------|--------||--------|--------||BBBBBBBB|BBBBBBBB||||--------|--------||--------|--------||--------|--------||--------|--------| set
cpu-bind=MASK - n2lcn0163, task 42  2 [500535]: mask 0x|--------|--------||--------|--------||BBBBBBBB|BBBBBBBB||--------|--------||||--------|--------||--------|--------||--------|--------||--------|--------| set
cpu-bind=MASK - n2lcn0163, task 43  3 [500536]: mask 0x|--------|--------||--------|--------||--------|--------||BBBBBBBB|BBBBBBBB||||--------|--------||--------|--------||--------|--------||--------|--------| set
cpu-bind=MASK - n2lcn0158, task 36  4 [829627]: mask 0x|--------|--------||--------|--------||--------|--------||--------|--------||||BBBBBBBB|BBBBBBBB||--------|--------||--------|--------||--------|--------| set
cpu-bind=MASK - n2lcn0163, task 44  4 [500537]: mask 0x|--------|--------||--------|--------||--------|--------||--------|--------||||BBBBBBBB|BBBBBBBB||--------|--------||--------|--------||--------|--------| set
cpu-bind=MASK - n2lcn0158, task 37  5 [829628]: mask 0x|--------|--------||--------|--------||--------|--------||--------|--------||||--------|--------||BBBBBBBB|BBBBBBBB||--------|--------||--------|--------| set
cpu-bind=MASK - n2lcn0163, task 45  5 [500538]: mask 0x|--------|--------||--------|--------||--------|--------||--------|--------||||--------|--------||BBBBBBBB|BBBBBBBB||--------|--------||--------|--------| set
cpu-bind=MASK - n2lcn0158, task 38  6 [829629]: mask 0x|--------|--------||--------|--------||--------|--------||--------|--------||||--------|--------||--------|--------||BBBBBBBB|BBBBBBBB||--------|--------| set
cpu-bind=MASK - n2lcn0163, task 46  6 [500539]: mask 0x|--------|--------||--------|--------||--------|--------||--------|--------||||--------|--------||--------|--------||BBBBBBBB|BBBBBBBB||--------|--------| set
cpu-bind=MASK - n2lcn0164, task 48  0 [960324]: mask 0x|BBBBBBBB|BBBBBBBB||--------|--------||--------|--------||--------|--------||||--------|--------||--------|--------||--------|--------||--------|--------| set
cpu-bind=MASK - n2lcn0164, task 49  1 [960325]: mask 0x|--------|--------||BBBBBBBB|BBBBBBBB||--------|--------||--------|--------||||--------|--------||--------|--------||--------|--------||--------|--------| set
cpu-bind=MASK - n2lcn0130, task  0  0 [527860]: mask 0x|BBBBBBBB|BBBBBBBB||--------|--------||--------|--------||--------|--------||||--------|--------||--------|--------||--------|--------||--------|--------| set
cpu-bind=MASK - n2lcn0164, task 50  2 [960326]: mask 0x|--------|--------||--------|--------||BBBBBBBB|BBBBBBBB||--------|--------||||--------|--------||--------|--------||--------|--------||--------|--------| set
cpu-bind=MASK - n2lcn0164, task 51  3 [960327]: mask 0x|--------|--------||--------|--------||--------|--------||BBBBBBBB|BBBBBBBB||||--------|--------||--------|--------||--------|--------||--------|--------| set
cpu-bind=MASK - n2lcn0130, task  1  1 [527861]: mask 0x|--------|--------||BBBBBBBB|BBBBBBBB||--------|--------||--------|--------||||--------|--------||--------|--------||--------|--------||--------|--------| set
cpu-bind=MASK - n2lcn0164, task 52  4 [960328]: mask 0x|--------|--------||--------|--------||--------|--------||--------|--------||||BBBBBBBB|BBBBBBBB||--------|--------||--------|--------||--------|--------| set
cpu-bind=MASK - n2lcn0130, task  2  2 [527862]: mask 0x|--------|--------||--------|--------||BBBBBBBB|BBBBBBBB||--------|--------||||--------|--------||--------|--------||--------|--------||--------|--------| set
cpu-bind=MASK - n2lcn0130, task  3  3 [527863]: mask 0x|--------|--------||--------|--------||--------|--------||BBBBBBBB|BBBBBBBB||||--------|--------||--------|--------||--------|--------||--------|--------| set
cpu-bind=MASK - n2lcn0164, task 53  5 [960329]: mask 0x|--------|--------||--------|--------||--------|--------||--------|--------||||--------|--------||BBBBBBBB|BBBBBBBB||--------|--------||--------|--------| set
cpu-bind=MASK - n2lcn0145, task  8  0 [848339]: mask 0x|BBBBBBBB|BBBBBBBB||--------|--------||--------|--------||--------|--------||||--------|--------||--------|--------||--------|--------||--------|--------| set
cpu-bind=MASK - n2lcn0164, task 54  6 [960330]: mask 0x|--------|--------||--------|--------||--------|--------||--------|--------||||--------|--------||--------|--------||BBBBBBBB|BBBBBBBB||--------|--------| set
cpu-bind=MASK - n2lcn0130, task  4  4 [527864]: mask 0x|--------|--------||--------|--------||--------|--------||--------|--------||||BBBBBBBB|BBBBBBBB||--------|--------||--------|--------||--------|--------| set
cpu-bind=MASK - n2lcn0158, task 39  7 [829630]: mask 0x|--------|--------||--------|--------||--------|--------||--------|--------||||--------|--------||--------|--------||--------|--------||BBBBBBBB|BBBBBBBB| set
cpu-bind=MASK - n2lcn0145, task  9  1 [848340]: mask 0x|--------|--------||BBBBBBBB|BBBBBBBB||--------|--------||--------|--------||||--------|--------||--------|--------||--------|--------||--------|--------| set
cpu-bind=MASK - n2lcn0163, task 47  7 [500540]: mask 0x|--------|--------||--------|--------||--------|--------||--------|--------||||--------|--------||--------|--------||--------|--------||BBBBBBBB|BBBBBBBB| set
cpu-bind=MASK - n2lcn0130, task  5  5 [527865]: mask 0x|--------|--------||--------|--------||--------|--------||--------|--------||||--------|--------||BBBBBBBB|BBBBBBBB||--------|--------||--------|--------| set
cpu-bind=MASK - n2lcn0145, task 10  2 [848341]: mask 0x|--------|--------||--------|--------||BBBBBBBB|BBBBBBBB||--------|--------||||--------|--------||--------|--------||--------|--------||--------|--------| set
cpu-bind=MASK - n2lcn0130, task  6  6 [527866]: mask 0x|--------|--------||--------|--------||--------|--------||--------|--------||||--------|--------||--------|--------||BBBBBBBB|BBBBBBBB||--------|--------| set
cpu-bind=MASK - n2lcn0150, task 24  0 [503287]: mask 0x|BBBBBBBB|BBBBBBBB||--------|--------||--------|--------||--------|--------||||--------|--------||--------|--------||--------|--------||--------|--------| set
cpu-bind=MASK - n2lcn0145, task 11  3 [848342]: mask 0x|--------|--------||--------|--------||--------|--------||BBBBBBBB|BBBBBBBB||||--------|--------||--------|--------||--------|--------||--------|--------| set
cpu-bind=MASK - n2lcn0150, task 25  1 [503288]: mask 0x|--------|--------||BBBBBBBB|BBBBBBBB||--------|--------||--------|--------||||--------|--------||--------|--------||--------|--------||--------|--------| set
cpu-bind=MASK - n2lcn0145, task 12  4 [848343]: mask 0x|--------|--------||--------|--------||--------|--------||--------|--------||||BBBBBBBB|BBBBBBBB||--------|--------||--------|--------||--------|--------| set
cpu-bind=MASK - n2lcn0150, task 26  2 [503289]: mask 0x|--------|--------||--------|--------||BBBBBBBB|BBBBBBBB||--------|--------||||--------|--------||--------|--------||--------|--------||--------|--------| set
cpu-bind=MASK - n2lcn0145, task 13  5 [848344]: mask 0x|--------|--------||--------|--------||--------|--------||--------|--------||||--------|--------||BBBBBBBB|BBBBBBBB||--------|--------||--------|--------| set
cpu-bind=MASK - n2lcn0150, task 27  3 [503290]: mask 0x|--------|--------||--------|--------||--------|--------||BBBBBBBB|BBBBBBBB||||--------|--------||--------|--------||--------|--------||--------|--------| set
cpu-bind=MASK - n2lcn0145, task 14  6 [848345]: mask 0x|--------|--------||--------|--------||--------|--------||--------|--------||||--------|--------||--------|--------||BBBBBBBB|BBBBBBBB||--------|--------| set
cpu-bind=MASK - n2lcn0150, task 28  4 [503291]: mask 0x|--------|--------||--------|--------||--------|--------||--------|--------||||BBBBBBBB|BBBBBBBB||--------|--------||--------|--------||--------|--------| set
cpu-bind=MASK - n2lcn0150, task 29  5 [503292]: mask 0x|--------|--------||--------|--------||--------|--------||--------|--------||||--------|--------||BBBBBBBB|BBBBBBBB||--------|--------||--------|--------| set
cpu-bind=MASK - n2lcn0164, task 55  7 [960331]: mask 0x|--------|--------||--------|--------||--------|--------||--------|--------||||--------|--------||--------|--------||--------|--------||BBBBBBBB|BBBBBBBB| set
cpu-bind=MASK - n2lcn0150, task 30  6 [503293]: mask 0x|--------|--------||--------|--------||--------|--------||--------|--------||||--------|--------||--------|--------||BBBBBBBB|BBBBBBBB||--------|--------| set
cpu-bind=MASK - n2lcn0130, task  7  7 [527867]: mask 0x|--------|--------||--------|--------||--------|--------||--------|--------||||--------|--------||--------|--------||--------|--------||BBBBBBBB|BBBBBBBB| set
cpu-bind=MASK - n2lcn0148, task 16  0 [783541]: mask 0x|BBBBBBBB|BBBBBBBB||--------|--------||--------|--------||--------|--------||||--------|--------||--------|--------||--------|--------||--------|--------| set
cpu-bind=MASK - n2lcn0145, task 15  7 [848346]: mask 0x|--------|--------||--------|--------||--------|--------||--------|--------||||--------|--------||--------|--------||--------|--------||BBBBBBBB|BBBBBBBB| set
cpu-bind=MASK - n2lcn0148, task 17  1 [783542]: mask 0x|--------|--------||BBBBBBBB|BBBBBBBB||--------|--------||--------|--------||||--------|--------||--------|--------||--------|--------||--------|--------| set
cpu-bind=MASK - n2lcn0148, task 18  2 [783543]: mask 0x|--------|--------||--------|--------||BBBBBBBB|BBBBBBBB||--------|--------||||--------|--------||--------|--------||--------|--------||--------|--------| set
cpu-bind=MASK - n2lcn0150, task 31  7 [503294]: mask 0x|--------|--------||--------|--------||--------|--------||--------|--------||||--------|--------||--------|--------||--------|--------||BBBBBBBB|BBBBBBBB| set
cpu-bind=MASK - n2lcn0148, task 19  3 [783544]: mask 0x|--------|--------||--------|--------||--------|--------||BBBBBBBB|BBBBBBBB||||--------|--------||--------|--------||--------|--------||--------|--------| set
cpu-bind=MASK - n2lcn0148, task 20  4 [783545]: mask 0x|--------|--------||--------|--------||--------|--------||--------|--------||||BBBBBBBB|BBBBBBBB||--------|--------||--------|--------||--------|--------| set
cpu-bind=MASK - n2lcn0148, task 21  5 [783546]: mask 0x|--------|--------||--------|--------||--------|--------||--------|--------||||--------|--------||BBBBBBBB|BBBBBBBB||--------|--------||--------|--------| set
cpu-bind=MASK - n2lcn0148, task 22  6 [783547]: mask 0x|--------|--------||--------|--------||--------|--------||--------|--------||||--------|--------||--------|--------||BBBBBBBB|BBBBBBBB||--------|--------| set
cpu-bind=MASK - n2lcn0166, task 56  0 [585398]: mask 0x|BBBBBBBB|BBBBBBBB||--------|--------||--------|--------||--------|--------||||--------|--------||--------|--------||--------|--------||--------|--------| set
cpu-bind=MASK - n2lcn0166, task 57  1 [585399]: mask 0x|--------|--------||BBBBBBBB|BBBBBBBB||--------|--------||--------|--------||||--------|--------||--------|--------||--------|--------||--------|--------| set
cpu-bind=MASK - n2lcn0166, task 58  2 [585400]: mask 0x|--------|--------||--------|--------||BBBBBBBB|BBBBBBBB||--------|--------||||--------|--------||--------|--------||--------|--------||--------|--------| set
cpu-bind=MASK - n2lcn0166, task 59  3 [585401]: mask 0x|--------|--------||--------|--------||--------|--------||BBBBBBBB|BBBBBBBB||||--------|--------||--------|--------||--------|--------||--------|--------| set
cpu-bind=MASK - n2lcn0166, task 60  4 [585402]: mask 0x|--------|--------||--------|--------||--------|--------||--------|--------||||BBBBBBBB|BBBBBBBB||--------|--------||--------|--------||--------|--------| set
cpu-bind=MASK - n2lcn0166, task 61  5 [585403]: mask 0x|--------|--------||--------|--------||--------|--------||--------|--------||||--------|--------||BBBBBBBB|BBBBBBBB||--------|--------||--------|--------| set
cpu-bind=MASK - n2lcn0148, task 23  7 [783548]: mask 0x|--------|--------||--------|--------||--------|--------||--------|--------||||--------|--------||--------|--------||--------|--------||BBBBBBBB|BBBBBBBB| set
cpu-bind=MASK - n2lcn0166, task 62  6 [585404]: mask 0x|--------|--------||--------|--------||--------|--------||--------|--------||||--------|--------||--------|--------||BBBBBBBB|BBBBBBBB||--------|--------| set
cpu-bind=MASK - n2lcn0166, task 63  7 [585405]: mask 0x|--------|--------||--------|--------||--------|--------||--------|--------||||--------|--------||--------|--------||--------|--------||BBBBBBBB|BBBBBBBB| set
 DBCSR| CPU Multiplication driver                                           XSMM (U)
 DBCSR| Multrec recursion limit                                              512 (U)
 DBCSR| Multiplication stack size                                           1000 (D)
 DBCSR| Maximum elements for images                                    UNLIMITED (U)
 DBCSR| Multiplicative factor virtual images                                   1 (U)
 DBCSR| Use multiplication densification                                       T (D)
 DBCSR| Multiplication size stacks                                             3 (U)
 DBCSR| Use memory pool for CPU allocation                                     F (U)
 DBCSR| Number of 3D layers                                               SINGLE (U)
 DBCSR| Use MPI memory allocation                                              F (U)
 DBCSR| Use RMA algorithm                                                      F (U)
 DBCSR| Use Communication thread                                               T (U)
 DBCSR| Communication thread load                                             30 (D)
 DBCSR| MPI: My process id                                                     0
 DBCSR| MPI: Number of processes                                              64
 DBCSR| OMP: Current number of threads                                        16
 DBCSR| OMP: Max number of threads                                            16
 DBCSR| Split modifier for TAS multiplication algorithm                  1.0E+00 (U)


  **** **** ******  **  PROGRAM STARTED AT               2026-09-22 21:39:21.081
 ***** ** ***  *** **   PROGRAM STARTED ON                             n2lcn0130
 **    ****   ******    PROGRAM STARTED BY                              metdyn07
 ***** **    ** ** **   PROGRAM PROCESS ID                                527860
  **** **  *******  **  PROGRAM STARTED IN /scratch/hpc-prf-metdyn/metdyn07_Rita
                                           j/otus/max-nanographene/64

 CP2K| version string:                 CP2K version 2026.2 (Development Version)
 CP2K| source code revision number:                                   0005d2399e
 CP2K| cp2kflags: omp libint fftw3 libxc elpa parallel scalapack mpi_f08 cosma l
 CP2K|            ibxs libxsmm plumed2 spglib openblas sirius libvori libbqb lib
 CP2K|            bvdwxc hdf5 greenx
 CP2K| is freely available from                            https://www.cp2k.org/
 CP2K| Program compiled at                                   2026-09-14 14:16:23
 CP2K| Program compiled on                                              n2login5
 CP2K| Program compiled for                                               x86_64
 CP2K| Data directory path    /pc2/groups/hpc-prf-metdyn/metdyn07_Ritaj/implemen
 CP2K| Input file name                                                 input.inp

 GLOBAL| Force Environment number                                              1
 GLOBAL| Basis set file name             BASIS_GTH_MOLOPT_AUG_for_excited_states
 GLOBAL| Potential file name                                      GTH_POTENTIALS
 GLOBAL| MM Potential file name                                     MM_POTENTIAL
 GLOBAL| Coordinate file name                                          struc.xyz
 GLOBAL| Method name                                                        CP2K
 GLOBAL| Project name                                                      rec_4
 GLOBAL| Run type                                                 RT_PROPAGATION
 GLOBAL| FFT library                                                       FFTW3
 GLOBAL| Diagonalization library                                            ELPA
 GLOBAL| Cholesky decomposition library                                ScaLAPACK
 GLOBAL| DGEMM library                                                      BLAS
 GLOBAL| Minimum number of eigenvectors for ELPA usage                        64
 GLOBAL| Orthonormality check for eigenvectors                          DISABLED
 GLOBAL| Matrix multiplication library                                     COSMA
 GLOBAL| All-to-all communication in single precision                          F
 GLOBAL| Grid backend                                                       AUTO
 GLOBAL| Global print level                                               MEDIUM
 GLOBAL| MPI I/O enabled                                                       T
 GLOBAL| Total number of message passing processes                            64
 GLOBAL| Number of distributed systems (nodes)                                 8
 GLOBAL| Number of threads for this process                                   16
 GLOBAL| This output is from process                                           0
 GLOBAL| OpenMP stack size per thread (OMP_STACKSIZE)                    default
 GLOBAL| CPU model name                          AMD EPYC 7763 64-Core Processor
 GLOBAL| CPUID                                                              1002
 GLOBAL| Compiled for CPUID                                                    0

 *** HINT in environment.F:968 :: The compiler target (generic) used to ***
 *** build this binary does not enable all instruction-set extensions   ***
 *** available on this CPU (x86_avx2). Consider reconfiguring and       ***
 *** rebuilding CP2K for this target system to enable them.             ***


 MEMORY| system memory details [Kb]
 MEMORY|                        rank 0           min           max       average
 MEMORY| MemTotal           1056620468    1056620460    1056620516    1056620489
 MEMORY| MemFree            1036883836    1036883836    1043828560    1041918408
 MEMORY| Buffers                423456        144260        423456        353624
 MEMORY| Cached               13026780       6615020      13026780       8187206
 MEMORY| Slab                  1939784       1498648       1943620       1781446
 MEMORY| SReclaimable           548492        248840        548492        451319
 MEMORY| MemLikelyFree      1050882564    1050768472    1051129496    1050910558


 *** Fundamental physical constants (SI units) ***

 *** Literature: B. J. Mohr and B. N. Taylor,
 ***             CODATA recommended values of the fundamental physical
 ***             constants: 2006, Web Version 5.1
 ***             http://physics.nist.gov/constants

 Speed of light in vacuum [m/s]                             2.99792458000000E+08
 Magnetic constant or permeability of vacuum [N/A**2]       1.25663706143592E-06
 Electric constant or permittivity of vacuum [F/m]          8.85418781762039E-12
 Planck constant (h) [J*s]                                  6.62606896000000E-34
 Planck constant (h-bar) [J*s]                              1.05457162825177E-34
 Elementary charge [C]                                      1.60217648700000E-19
 Electron mass [kg]                                         9.10938215000000E-31
 Electron g factor [ ]                                     -2.00231930436220E+00
 Proton mass [kg]                                           1.67262163700000E-27
 Fine-structure constant                                    7.29735253760000E-03
 Rydberg constant [1/m]                                     1.09737315685270E+07
 Avogadro constant [1/mol]                                  6.02214179000000E+23
 Boltzmann constant [J/K]                                   1.38065040000000E-23
 Atomic mass unit [kg]                                      1.66053878200000E-27
 Bohr radius [m]                                            5.29177208590000E-11

 *** Conversion factors ***

 [u] -> [a.u.]                                              1.82288848426455E+03
 [Angstrom] -> [Bohr] = [a.u.]                              1.88972613288564E+00
 [a.u.] = [Bohr] -> [Angstrom]                              5.29177208590000E-01
 [a.u.] -> [s]                                              2.41888432650478E-17
 [a.u.] -> [fs]                                             2.41888432650478E-02
 [a.u.] -> [J]                                              4.35974393937059E-18
 [a.u.] -> [N]                                              8.23872205491840E-08
 [a.u.] -> [K]                                              3.15774647902944E+05
 [a.u.] -> [kJ/mol]                                         2.62549961709828E+03
 [a.u.] -> [kcal/mol]                                       6.27509468713739E+02
 [a.u.] -> [Pa]                                             2.94210107994716E+13
 [a.u.] -> [bar]                                            2.94210107994716E+08
 [a.u.] -> [atm]                                            2.90362800883016E+08
 [a.u.] -> [eV]                                             2.72113838565563E+01
 [a.u.] -> [Hz]                                             6.57968392072181E+15
 [a.u.] -> [1/cm] (wave numbers)                            2.19474631370540E+05
 [a.u./Bohr**2] -> [1/cm]                                   5.14048714338585E+03
 

 CELL| Volume [angstrom^3]:                                         62869.462425
 CELL| Vector a [angstrom]:      19.190     0.000     0.000   |a| =    19.190000
 CELL| Vector b [angstrom]:       0.000   283.650     0.000   |b| =   283.650000
 CELL| Vector c [angstrom]:       0.000     0.000    11.550   |c| =    11.550000
 CELL| Angle (b,c), alpha [degree]:                                    90.000000
 CELL| Angle (a,c), beta  [degree]:                                    90.000000
 CELL| Angle (a,b), gamma [degree]:                                    90.000000
 CELL| Numerically orthorhombic:                                             YES
 CELL| Periodicity                                                          NONE

 CELL_REF| Volume [angstrom^3]:                                     62869.462425
 CELL_REF| Vector a [angstrom    19.190     0.000     0.000   |a| =    19.190000
 CELL_REF| Vector b [angstrom     0.000   283.650     0.000   |b| =   283.650000
 CELL_REF| Vector c [angstrom     0.000     0.000    11.550   |c| =    11.550000
 CELL_REF| Angle (b,c), alpha [degree]:                                90.000000
 CELL_REF| Angle (a,c), beta  [degree]:                                90.000000
 CELL_REF| Angle (a,b), gamma [degree]:                                90.000000
 CELL_REF| Numerically orthorhombic:                                         YES
 CELL_REF| Periodicity                                                      NONE

 GENERATE|  Preliminary Number of Bonds generated:                             0
 GENERATE|  Achieved consistency in connectivity generation.

 PW_GRID| Information for grid number                                          1
 PW_GRID| Cutoff [a.u.]                                                      0.0
 PW_GRID| spherical cutoff:                                                   NO
 PW_GRID|   Bounds   1              0      49                Points:          50
 PW_GRID|   Bounds   2              0      49                Points:          50
 PW_GRID|   Bounds   3              0      49                Points:          50
 PW_GRID| Volume element (a.u.^3)   3.394         Volume (a.u.^3)    424264.1675
 PW_GRID| Grid span                                                    HALFSPACE

 *******************************************************************************
 *******************************************************************************
 **                                                                           **
 **     #####                         ##              ##                      **
 **    ##   ##            ##          ##              ##                      **
 **   ##     ##                       ##            ######                    **
 **   ##     ##  ##   ##  ##   #####  ##  ##   ####   ##    #####    #####    **
 **   ##     ##  ##   ##  ##  ##      ## ##   ##      ##   ##   ##  ##   ##   **
 **   ##  ## ##  ##   ##  ##  ##      ####     ###    ##   ######   ######    **
 **    ##  ###   ##   ##  ##  ##      ## ##      ##   ##   ##       ##        **
 **     #######   #####   ##   #####  ##  ##  ####    ##    #####   ##        **
 **           ##                                                    ##        **
 **                                                                           **
 **                                                ... make the atoms dance   **
 **                                                                           **
 **            Copyright (C) by CP2K developers group (2000-2026)             **
 **                      J. Chem. Phys. 152, 194103 (2020)                    **
 **                                                                           **
 *******************************************************************************

 DFT| Spin restricted Kohn-Sham (RKS) calculation                            RKS
 DFT| Multiplicity                                                             1
 DFT| Number of spin states                                                    1
 DFT| Charge                                                                   0
 DFT| Self-interaction correction (SIC)                                       NO
 DFT| Cutoffs: density                                              1.000000E-10
 DFT|          gradient                                             1.000000E-10
 DFT|          tau                                                  1.000000E-10
 DFT|          cutoff_smoothing_range                               0.000000E+00
 DFT| XC density smoothing                                                  NONE
 DFT| XC derivatives                                                          PW

 FUNCTIONAL| PBE:
 FUNCTIONAL| J.P.Perdew, K.Burke, M.Ernzerhof, Phys. Rev. Letter, vol. 77, n 18,
 FUNCTIONAL|  pp. 3865-3868, (1996) {spin unpolarized}                          


 QS| Method:                                                                 GPW
 QS| Density plane wave grid type                        NON-SPHERICAL FULLSPACE
 QS| Number of grid levels:                                                    4
 QS| Density cutoff [a.u.]:                                                300.0
 QS| Multi grid cutoff [a.u.]: 1) grid level                               300.0
 QS|                           2) grid level                               100.0
 QS|                           3) grid level                                33.3
 QS|                           4) grid level                                11.1
 QS| Grid level progression factor:                                          3.0
 QS| Relative density cutoff [a.u.]:                                        30.0
 QS| Interaction thresholds: eps_pgf_orb:                                3.2E-08
 QS|                         eps_filter_matrix:                          0.0E+00
 QS|                         eps_core_charge:                            1.0E-17
 QS|                         eps_rho_gspace:                             1.0E-15
 QS|                         eps_rho_rspace:                             1.0E-15
 QS|                         eps_gvg_rspace:                             3.2E-08
 QS|                         eps_ppl:                                    1.0E-02
 QS|                         eps_ppnl:                                   3.2E-10


 ATOMIC KIND INFORMATION

  1. Atomic kind: H                                     Number of atoms:     264

     Orbital Basis Set                                 aug-SZV-MOLOPT-GTH-tier-2

       Number of orbital shell sets:                                           1
       Number of orbital shells:                                               4
       Number of primitive Cartesian functions:                                7
       Number of Cartesian basis functions:                                    6
       Number of spherical basis functions:                                    6
       Norm type:                                                              2

       Normalised Cartesian orbitals:

                        Set   Shell   Orbital            Exponent    Coefficient

                          1       1    2s                0.050000       0.000000
                                                         0.082193      -0.014019
                                                         0.239116      -0.107525
                                                         0.450000       0.000000
                                                         0.791502      -0.258419
                                                         2.680223      -0.177618
                                                        10.068468      -0.133023

                          1       2    3s                0.050000       0.064974
                                                         0.082193       0.029198
                                                         0.239116      -0.007574
                                                         0.450000      -0.090795
                                                         0.791502      -0.025739
                                                         2.680223       0.000002
                                                        10.068468       0.000000

                          1       3    4s                0.050000      -0.067626
                                                         0.082193       0.244167
                                                         0.239116      -0.094768
                                                         0.450000      -0.043967
                                                         0.791502      -0.043572
                                                         2.680223      -0.153771
                                                        10.068468       0.000000

                          1       4    3px               0.050000       0.038628
                                                         0.082193      -0.015554
                                                         0.239116       0.034455
                                                         0.450000       0.013474
                                                         0.791502      -0.005076
                                                         2.680223       0.028739
                                                        10.068468       0.000000
                          1       4    3py               0.050000       0.038628
                                                         0.082193      -0.015554
                                                         0.239116       0.034455
                                                         0.450000       0.013474
                                                         0.791502      -0.005076
                                                         2.680223       0.028739
                                                        10.068468       0.000000
                          1       4    3pz               0.050000       0.038628
                                                         0.082193      -0.015554
                                                         0.239116       0.034455
                                                         0.450000       0.013474
                                                         0.791502      -0.005076
                                                         2.680223       0.028739
                                                        10.068468       0.000000

     RI Auxiliary Basis Set             RI_aug-SZV-MOLOPT-GTH-tier-2_N_RI_005_s_

       Number of orbital shell sets:                                           3
       Number of orbital shells:                                               3
       Number of primitive Cartesian functions:                                3
       Number of Cartesian basis functions:                                    5
       Number of spherical basis functions:                                    5
       Norm type:                                                              2

       Normalised Cartesian orbitals:

                        Set   Shell   Orbital            Exponent    Coefficient

                          1       1    1s                0.184491       0.200628

                          2       1    2s                3.030559       1.637013

                          3       1    3px               0.610174       0.768701
                          3       1    3py               0.610174       0.768701
                          3       1    3pz               0.610174       0.768701

       Atomic covalent radius [Angstrom]:                                  0.320

       Atomic van der Waals radius [Angstrom]:                             1.090

     GTH Potential information for                                    GTH-PBE-q1

       Description:                       Goedecker-Teter-Hutter pseudopotential
                                           Goedecker et al., PRB 54, 1703 (1996)
                                          Hartwigsen et al., PRB 58, 3641 (1998)
                                                      Krack, TCA 114, 145 (2005)

       Gaussian exponent of the core charge distribution:              12.500000
       Electronic configuration (s p d ...):                                   1

       Parameters of the local part of the GTH pseudopotential:

                          rloc        C1          C2          C3          C4
                        0.200000   -4.178900    0.724463

  2. Atomic kind: C                                     Number of atoms:     896

     Orbital Basis Set                                 aug-SZV-MOLOPT-GTH-tier-2

       Number of orbital shell sets:                                           1
       Number of orbital shells:                                               5
       Number of primitive Cartesian functions:                                6
       Number of Cartesian basis functions:                                   14
       Number of spherical basis functions:                                   13
       Norm type:                                                              2

       Normalised Cartesian orbitals:

                        Set   Shell   Orbital            Exponent    Coefficient

                          1       1    2s                0.070000       0.000000
                                                         0.128212      -0.022789
                                                         0.348157      -0.219794
                                                         0.769911      -0.209686
                                                         2.113016       0.213043
                                                         5.605331       0.322515

                          1       2    3s                0.070000       0.133509
                                                         0.128212      -0.041206
                                                         0.348157      -0.081784
                                                         0.769911      -0.003005
                                                         2.113016       0.000000
                                                         5.605331       0.000000

                          1       3    3px               0.070000       0.000000
                                                         0.128212      -0.027849
                                                         0.348157      -0.139743
                                                         0.769911      -0.374851
                                                         2.113016      -0.642521
                                                         5.605331      -0.703879
                          1       3    3py               0.070000       0.000000
                                                         0.128212      -0.027849
                                                         0.348157      -0.139743
                                                         0.769911      -0.374851
                                                         2.113016      -0.642521
                                                         5.605331      -0.703879
                          1       3    3pz               0.070000       0.000000
                                                         0.128212      -0.027849
                                                         0.348157      -0.139743
                                                         0.769911      -0.374851
                                                         2.113016      -0.642521
                                                         5.605331      -0.703879

                          1       4    4px               0.070000       0.033242
                                                         0.128212       0.023307
                                                         0.348157       0.113522
                                                         0.769911      -0.094955
                                                         2.113016       0.000000
                                                         5.605331       0.000000
                          1       4    4py               0.070000       0.033242
                                                         0.128212       0.023307
                                                         0.348157       0.113522
                                                         0.769911      -0.094955
                                                         2.113016       0.000000
                                                         5.605331       0.000000
                          1       4    4pz               0.070000       0.033242
                                                         0.128212       0.023307
                                                         0.348157       0.113522
                                                         0.769911      -0.094955
                                                         2.113016       0.000000
                                                         5.605331       0.000000

                          1       5    4dx2              0.070000      -0.000111
                                                         0.128212       0.037828
                                                         0.348157       0.043639
                                                         0.769911       0.120124
                                                         2.113016       0.000000
                                                         5.605331       0.000000
                          1       5    4dxy              0.070000      -0.000193
                                                         0.128212       0.065520
                                                         0.348157       0.075585
                                                         0.769911       0.208061
                                                         2.113016       0.000000
                                                         5.605331       0.000000
                          1       5    4dxz              0.070000      -0.000193
                                                         0.128212       0.065520
                                                         0.348157       0.075585
                                                         0.769911       0.208061
                                                         2.113016       0.000000
                                                         5.605331       0.000000
                          1       5    4dy2              0.070000      -0.000111
                                                         0.128212       0.037828
                                                         0.348157       0.043639
                                                         0.769911       0.120124
                                                         2.113016       0.000000
                                                         5.605331       0.000000
                          1       5    4dyz              0.070000      -0.000193
                                                         0.128212       0.065520
                                                         0.348157       0.075585
                                                         0.769911       0.208061
                                                         2.113016       0.000000
                                                         5.605331       0.000000
                          1       5    4dz2              0.070000      -0.000111
                                                         0.128212       0.037828
                                                         0.348157       0.043639
                                                         0.769911       0.120124
                                                         2.113016       0.000000
                                                         5.605331       0.000000

     RI Auxiliary Basis Set             RI_aug-SZV-MOLOPT-GTH-tier-2_N_RI_030_s_

       Number of orbital shell sets:                                          10
       Number of orbital shells:                                              10
       Number of primitive Cartesian functions:                               10
       Number of Cartesian basis functions:                                   35
       Number of spherical basis functions:                                   30
       Norm type:                                                              2

       Normalised Cartesian orbitals:

                        Set   Shell   Orbital            Exponent    Coefficient

                          1       1    1s                0.191848       0.206599

                          2       1    2s                0.736300       0.566502

                          3       1    3s                2.917592       1.591031

                          4       1    4s                9.448168       3.840792

                          5       1    5px               0.281885       0.292772
                          5       1    5py               0.281885       0.292772
                          5       1    5pz               0.281885       0.292772

                          6       1    6px               0.984576       1.397983
                          6       1    6py               0.984576       1.397983
                          6       1    6pz               0.984576       1.397983

                          7       1    7px               2.475409       4.425871
                          7       1    7py               2.475409       4.425871
                          7       1    7pz               2.475409       4.425871

                          8       1    8dx2              0.347629       0.259037
                          8       1    8dxy              0.347629       0.448666
                          8       1    8dxz              0.347629       0.448666
                          8       1    8dy2              0.347629       0.259037
                          8       1    8dyz              0.347629       0.448666
                          8       1    8dz2              0.347629       0.259037

                          9       1    9dx2              1.822216       4.703911
                          9       1    9dxy              1.822216       8.147414
                          9       1    9dxz              1.822216       8.147414
                          9       1    9dy2              1.822216       4.703911
                          9       1    9dyz              1.822216       8.147414
                          9       1    9dz2              1.822216       4.703911

                         10       1   10fx3              0.497967       0.306659
                         10       1   10fx2y             0.497967       0.685710
                         10       1   10fx2z             0.497967       0.685710
                         10       1   10fxy2             0.497967       0.685710
                         10       1   10fxyz             0.497967       1.187685
                         10       1   10fxz2             0.497967       0.685710
                         10       1   10fy3              0.497967       0.306659
                         10       1   10fy2z             0.497967       0.685710
                         10       1   10fyz2             0.497967       0.685710
                         10       1   10fz3              0.497967       0.306659

       Atomic covalent radius [Angstrom]:                                  0.770

       Atomic van der Waals radius [Angstrom]:                             1.700

     GTH Potential information for                                    GTH-PBE-q4

       Description:                       Goedecker-Teter-Hutter pseudopotential
                                           Goedecker et al., PRB 54, 1703 (1996)
                                          Hartwigsen et al., PRB 58, 3641 (1998)
                                                      Krack, TCA 114, 145 (2005)

       Gaussian exponent of the core charge distribution:               4.364419
       Electronic configuration (s p d ...):                               2   2

       Parameters of the local part of the GTH pseudopotential:

                          rloc        C1          C2          C3          C4
                        0.338471   -8.803674    1.339211

       Parameters of the non-local part of the GTH pseudopotential:

                   l      r(l)      h(i,j,l)

                   0    0.302576    9.622487
                   1    0.291507


 MOLECULE KIND INFORMATION


 All atoms are their own molecule, skipping detailed information


 TOTAL NUMBERS AND MAXIMUM NUMBERS

  Total number of            - Atomic kinds:                                   2
                             - Atoms:                                       1160
                             - Shell sets:                                  1160
                             - Shells:                                      5536
                             - Primitive Cartesian functions:               7224
                             - Cartesian basis functions:                  14128
                             - Spherical basis functions:                  13232

  Maximum angular momentum of- Orbital basis functions:                        2
                             - Local part of the GTH pseudopotential:          2
                             - Non-local part of the GTH pseudopotential:      0


 MODULE QUICKSTEP: ATOMIC COORDINATES IN ANGSTROM

   Atom Kind Element         X             Y             Z       Z(eff)     Mass
      1    1 H     1     12.035671      5.000220      5.775000   1.0000   1.0079
      2    1 H     1      7.154329      5.000220      5.775000   1.0000   1.0079
      3    1 H     1      9.595000      5.311466      6.548044   1.0000   1.0079
      4    1 H     1      9.595000      5.311466      5.001956   1.0000   1.0079
      5    2 C     6      9.595000      6.084510      5.775000   4.0000  12.0107
      6    2 C     6      7.154329      6.093470      5.775000   4.0000  12.0107
      7    2 C     6     12.035671      6.093470      5.775000   4.0000  12.0107
      8    1 H     1      4.998191      6.308173      5.775000   1.0000   1.0079
      9    1 H     1     14.191809      6.308173      5.775000   1.0000   1.0079
     10    2 C     6      8.371477      6.797695      5.775000   4.0000  12.0107
     11    2 C     6     10.818523      6.797695      5.775000   4.0000  12.0107
     12    2 C     6     13.230017      6.827941      5.775000   4.0000  12.0107
     13    2 C     6      5.959983      6.827941      5.775000   4.0000  12.0107
     14    2 C     6      5.959983      8.186295      5.775000   4.0000  12.0107
     15    2 C     6     13.230017      8.186295      5.775000   4.0000  12.0107
     16    2 C     6      8.371477      8.216540      5.775000   4.0000  12.0107
     17    2 C     6     10.818523      8.216540      5.775000   4.0000  12.0107
     18    1 H     1     14.191809      8.706062      5.775000   1.0000   1.0079
     19    1 H     1      4.998191      8.706062      5.775000   1.0000   1.0079
     20    2 C     6     12.035671      8.920765      5.775000   4.0000  12.0107
     21    2 C     6      7.154329      8.920765      5.775000   4.0000  12.0107
     22    2 C     6      9.595000      8.929725      5.775000   4.0000  12.0107
     23    2 C     6      9.595000     10.348570      5.775000   4.0000  12.0107
     24    2 C     6      7.154329     10.357530      5.775000   4.0000  12.0107
     25    2 C     6     12.035671     10.357530      5.775000   4.0000  12.0107
     26    1 H     1     14.191809     10.572233      5.775000   1.0000   1.0079
     27    1 H     1      4.998191     10.572233      5.775000   1.0000   1.0079
     28    2 C     6     10.818523     11.061755      5.775000   4.0000  12.0107
     29    2 C     6      8.371477     11.061755      5.775000   4.0000  12.0107
     30    2 C     6      5.959983     11.092000      5.775000   4.0000  12.0107
     31    2 C     6     13.230017     11.092000      5.775000   4.0000  12.0107
     32    2 C     6     13.230017     12.450355      5.775000   4.0000  12.0107
     33    2 C     6      5.959983     12.450355      5.775000   4.0000  12.0107
     34    2 C     6      8.371477     12.480600      5.775000   4.0000  12.0107
     35    2 C     6     10.818523     12.480600      5.775000   4.0000  12.0107
     36    1 H     1      4.998191     12.970122      5.775000   1.0000   1.0079
     37    1 H     1     14.191809     12.970122      5.775000   1.0000   1.0079
     38    2 C     6     12.035671     13.184825      5.775000   4.0000  12.0107
     39    2 C     6      7.154329     13.184825      5.775000   4.0000  12.0107
     40    2 C     6      9.595000     13.193785      5.775000   4.0000  12.0107
     41    2 C     6      9.595000     14.612630      5.775000   4.0000  12.0107
     42    2 C     6      7.154329     14.621590      5.775000   4.0000  12.0107
     43    2 C     6     12.035671     14.621590      5.775000   4.0000  12.0107
     44    1 H     1      4.998191     14.836293      5.775000   1.0000   1.0079
     45    1 H     1     14.191809     14.836293      5.775000   1.0000   1.0079
     46    2 C     6      8.371477     15.325815      5.775000   4.0000  12.0107
     47    2 C     6     10.818523     15.325815      5.775000   4.0000  12.0107
     48    2 C     6     13.230017     15.356060      5.775000   4.0000  12.0107
     49    2 C     6      5.959983     15.356060      5.775000   4.0000  12.0107
     50    2 C     6      5.959983     16.714414      5.775000   4.0000  12.0107
     51    2 C     6     13.230017     16.714414      5.775000   4.0000  12.0107
     52    2 C     6     10.818523     16.744660      5.775000   4.0000  12.0107
     53    2 C     6      8.371477     16.744660      5.775000   4.0000  12.0107
     54    1 H     1      4.998191     17.234182      5.775000   1.0000   1.0079
     55    1 H     1     14.191809     17.234182      5.775000   1.0000   1.0079
     56    2 C     6      7.154329     17.448885      5.775000   4.0000  12.0107
     57    2 C     6     12.035671     17.448885      5.775000   4.0000  12.0107
     58    2 C     6      9.595000     17.457845      5.775000   4.0000  12.0107
     59    2 C     6      9.595000     18.876690      5.775000   4.0000  12.0107
     60    2 C     6     12.035671     18.885650      5.775000   4.0000  12.0107
     61    2 C     6      7.154329     18.885650      5.775000   4.0000  12.0107
     62    1 H     1      4.998191     19.100352      5.775000   1.0000   1.0079
     63    1 H     1     14.191809     19.100352      5.775000   1.0000   1.0079
     64    2 C     6     10.818523     19.589874      5.775000   4.0000  12.0107
     65    2 C     6      8.371477     19.589874      5.775000   4.0000  12.0107
     66    2 C     6     13.230017     19.620120      5.775000   4.0000  12.0107
     67    2 C     6      5.959983     19.620120      5.775000   4.0000  12.0107
     68    2 C     6     13.230017     20.978474      5.775000   4.0000  12.0107
     69    2 C     6      5.959983     20.978474      5.775000   4.0000  12.0107
     70    2 C     6     10.818523     21.008720      5.775000   4.0000  12.0107
     71    2 C     6      8.371477     21.008720      5.775000   4.0000  12.0107
     72    1 H     1     14.191809     21.498242      5.775000   1.0000   1.0079
     73    1 H     1      4.998191     21.498242      5.775000   1.0000   1.0079
     74    2 C     6      7.154329     21.712944      5.775000   4.0000  12.0107
     75    2 C     6     12.035671     21.712944      5.775000   4.0000  12.0107
     76    2 C     6      9.595000     21.721904      5.775000   4.0000  12.0107
     77    2 C     6      9.595000     23.140749      5.775000   4.0000  12.0107
     78    2 C     6     12.035671     23.149709      5.775000   4.0000  12.0107
     79    2 C     6      7.154329     23.149709      5.775000   4.0000  12.0107
     80    1 H     1      4.998191     23.364412      5.775000   1.0000   1.0079
     81    1 H     1     14.191809     23.364412      5.775000   1.0000   1.0079
     82    2 C     6      8.371477     23.853934      5.775000   4.0000  12.0107
     83    2 C     6     10.818523     23.853934      5.775000   4.0000  12.0107
     84    2 C     6     13.230017     23.884180      5.775000   4.0000  12.0107
     85    2 C     6      5.959983     23.884180      5.775000   4.0000  12.0107
     86    2 C     6      5.959983     25.242534      5.775000   4.0000  12.0107
     87    2 C     6     13.230017     25.242534      5.775000   4.0000  12.0107
     88    2 C     6      8.371477     25.272779      5.775000   4.0000  12.0107
     89    2 C     6     10.818523     25.272779      5.775000   4.0000  12.0107
     90    1 H     1      4.998191     25.762301      5.775000   1.0000   1.0079
     91    1 H     1     14.191809     25.762301      5.775000   1.0000   1.0079
     92    2 C     6     12.035671     25.977004      5.775000   4.0000  12.0107
     93    2 C     6      7.154329     25.977004      5.775000   4.0000  12.0107
     94    2 C     6      9.595000     25.985964      5.775000   4.0000  12.0107
     95    2 C     6      9.595000     27.404809      5.775000   4.0000  12.0107
     96    2 C     6      7.154329     27.413769      5.775000   4.0000  12.0107
     97    2 C     6     12.035671     27.413769      5.775000   4.0000  12.0107
     98    1 H     1      4.998191     27.628472      5.775000   1.0000   1.0079
     99    1 H     1     14.191809     27.628472      5.775000   1.0000   1.0079
    100    2 C     6      8.371477     28.117994      5.775000   4.0000  12.0107
    101    2 C     6     10.818523     28.117994      5.775000   4.0000  12.0107
    102    2 C     6      5.959983     28.148239      5.775000   4.0000  12.0107
    103    2 C     6     13.230017     28.148239      5.775000   4.0000  12.0107
    104    2 C     6     13.230017     29.506594      5.775000   4.0000  12.0107
    105    2 C     6      5.959983     29.506594      5.775000   4.0000  12.0107
    106    2 C     6     10.818523     29.536839      5.775000   4.0000  12.0107
    107    2 C     6      8.371477     29.536839      5.775000   4.0000  12.0107
    108    1 H     1      4.998191     30.026361      5.775000   1.0000   1.0079
    109    1 H     1     14.191809     30.026361      5.775000   1.0000   1.0079
    110    2 C     6      7.154329     30.241064      5.775000   4.0000  12.0107
    111    2 C     6     12.035671     30.241064      5.775000   4.0000  12.0107
    112    2 C     6      9.595000     30.250024      5.775000   4.0000  12.0107
    113    2 C     6      9.595000     31.668869      5.775000   4.0000  12.0107
    114    2 C     6      7.154329     31.677829      5.775000   4.0000  12.0107
    115    2 C     6     12.035671     31.677829      5.775000   4.0000  12.0107
    116    1 H     1      4.998191     31.892532      5.775000   1.0000   1.0079
    117    1 H     1     14.191809     31.892532      5.775000   1.0000   1.0079
    118    2 C     6     10.818523     32.382054      5.775000   4.0000  12.0107
    119    2 C     6      8.371477     32.382054      5.775000   4.0000  12.0107
    120    2 C     6     13.230017     32.412299      5.775000   4.0000  12.0107
    121    2 C     6      5.959983     32.412299      5.775000   4.0000  12.0107
    122    2 C     6      5.959983     33.770653      5.775000   4.0000  12.0107
    123    2 C     6     13.230017     33.770653      5.775000   4.0000  12.0107
    124    2 C     6     10.818523     33.800899      5.775000   4.0000  12.0107
    125    2 C     6      8.371477     33.800899      5.775000   4.0000  12.0107
    126    1 H     1      4.998191     34.290421      5.775000   1.0000   1.0079
    127    1 H     1     14.191809     34.290421      5.775000   1.0000   1.0079
    128    2 C     6      7.154329     34.505124      5.775000   4.0000  12.0107
    129    2 C     6     12.035671     34.505124      5.775000   4.0000  12.0107
    130    2 C     6      9.595000     34.514084      5.775000   4.0000  12.0107
    131    2 C     6      9.595000     35.932929      5.775000   4.0000  12.0107
    132    2 C     6      7.154329     35.941889      5.775000   4.0000  12.0107
    133    2 C     6     12.035671     35.941889      5.775000   4.0000  12.0107
    134    1 H     1      4.998191     36.156592      5.775000   1.0000   1.0079
    135    1 H     1     14.191809     36.156592      5.775000   1.0000   1.0079
    136    2 C     6     10.818523     36.646113      5.775000   4.0000  12.0107
    137    2 C     6      8.371477     36.646113      5.775000   4.0000  12.0107
    138    2 C     6      5.959983     36.676359      5.775000   4.0000  12.0107
    139    2 C     6     13.230017     36.676359      5.775000   4.0000  12.0107
    140    2 C     6      5.959983     38.034713      5.775000   4.0000  12.0107
    141    2 C     6     13.230017     38.034713      5.775000   4.0000  12.0107
    142    2 C     6     10.818523     38.064959      5.775000   4.0000  12.0107
    143    2 C     6      8.371477     38.064959      5.775000   4.0000  12.0107
    144    1 H     1     14.191809     38.554481      5.775000   1.0000   1.0079
    145    1 H     1      4.998191     38.554481      5.775000   1.0000   1.0079
    146    2 C     6      7.154329     38.769183      5.775000   4.0000  12.0107
    147    2 C     6     12.035671     38.769183      5.775000   4.0000  12.0107
    148    2 C     6      9.595000     38.778143      5.775000   4.0000  12.0107
    149    2 C     6      9.595000     40.196988      5.775000   4.0000  12.0107
    150    2 C     6     12.035671     40.205948      5.775000   4.0000  12.0107
    151    2 C     6      7.154329     40.205948      5.775000   4.0000  12.0107
    152    1 H     1      4.998191     40.420651      5.775000   1.0000   1.0079
    153    1 H     1     14.191809     40.420651      5.775000   1.0000   1.0079
    154    2 C     6      8.371477     40.910173      5.775000   4.0000  12.0107
    155    2 C     6     10.818523     40.910173      5.775000   4.0000  12.0107
    156    2 C     6     13.230017     40.940419      5.775000   4.0000  12.0107
    157    2 C     6      5.959983     40.940419      5.775000   4.0000  12.0107
    158    2 C     6      5.959983     42.298773      5.775000   4.0000  12.0107
    159    2 C     6     13.230017     42.298773      5.775000   4.0000  12.0107
    160    2 C     6     10.818523     42.329018      5.775000   4.0000  12.0107
    161    2 C     6      8.371477     42.329018      5.775000   4.0000  12.0107
    162    1 H     1      4.998191     42.818540      5.775000   1.0000   1.0079
    163    1 H     1     14.191809     42.818540      5.775000   1.0000   1.0079
    164    2 C     6      7.154329     43.033243      5.775000   4.0000  12.0107
    165    2 C     6     12.035671     43.033243      5.775000   4.0000  12.0107
    166    2 C     6      9.595000     43.042203      5.775000   4.0000  12.0107
    167    2 C     6      9.595000     44.461048      5.775000   4.0000  12.0107
    168    2 C     6      7.154329     44.470008      5.775000   4.0000  12.0107
    169    2 C     6     12.035671     44.470008      5.775000   4.0000  12.0107
    170    1 H     1     14.191809     44.684711      5.775000   1.0000   1.0079
    171    1 H     1      4.998191     44.684711      5.775000   1.0000   1.0079
    172    2 C     6     10.818523     45.174233      5.775000   4.0000  12.0107
    173    2 C     6      8.371477     45.174233      5.775000   4.0000  12.0107
    174    2 C     6      5.959983     45.204478      5.775000   4.0000  12.0107
    175    2 C     6     13.230017     45.204478      5.775000   4.0000  12.0107
    176    2 C     6     13.230017     46.562833      5.775000   4.0000  12.0107
    177    2 C     6      5.959983     46.562833      5.775000   4.0000  12.0107
    178    2 C     6     10.818523     46.593078      5.775000   4.0000  12.0107
    179    2 C     6      8.371477     46.593078      5.775000   4.0000  12.0107
    180    1 H     1     14.191809     47.082600      5.775000   1.0000   1.0079
    181    1 H     1      4.998191     47.082600      5.775000   1.0000   1.0079
    182    2 C     6      7.154329     47.297303      5.775000   4.0000  12.0107
    183    2 C     6     12.035671     47.297303      5.775000   4.0000  12.0107
    184    2 C     6      9.595000     47.306263      5.775000   4.0000  12.0107
    185    2 C     6      9.595000     48.725108      5.775000   4.0000  12.0107
    186    2 C     6     12.035671     48.734068      5.775000   4.0000  12.0107
    187    2 C     6      7.154329     48.734068      5.775000   4.0000  12.0107
    188    1 H     1     14.191809     48.948771      5.775000   1.0000   1.0079
    189    1 H     1      4.998191     48.948771      5.775000   1.0000   1.0079
    190    2 C     6     10.818523     49.438293      5.775000   4.0000  12.0107
    191    2 C     6      8.371477     49.438293      5.775000   4.0000  12.0107
    192    2 C     6      5.959983     49.468538      5.775000   4.0000  12.0107
    193    2 C     6     13.230017     49.468538      5.775000   4.0000  12.0107
    194    2 C     6      5.959983     50.826892      5.775000   4.0000  12.0107
    195    2 C     6     13.230017     50.826892      5.775000   4.0000  12.0107
    196    2 C     6      8.371477     50.857138      5.775000   4.0000  12.0107
    197    2 C     6     10.818523     50.857138      5.775000   4.0000  12.0107
    198    1 H     1      4.998191     51.346660      5.775000   1.0000   1.0079
    199    1 H     1     14.191809     51.346660      5.775000   1.0000   1.0079
    200    2 C     6     12.035671     51.561363      5.775000   4.0000  12.0107
    201    2 C     6      7.154329     51.561363      5.775000   4.0000  12.0107
    202    2 C     6      9.595000     51.570323      5.775000   4.0000  12.0107
    203    2 C     6      9.595000     52.989168      5.775000   4.0000  12.0107
    204    2 C     6     12.035671     52.998128      5.775000   4.0000  12.0107
    205    2 C     6      7.154329     52.998128      5.775000   4.0000  12.0107
    206    1 H     1     14.191809     53.212831      5.775000   1.0000   1.0079
    207    1 H     1      4.998191     53.212831      5.775000   1.0000   1.0079
    208    2 C     6     10.818523     53.702352      5.775000   4.0000  12.0107
    209    2 C     6      8.371477     53.702352      5.775000   4.0000  12.0107
    210    2 C     6      5.959983     53.732598      5.775000   4.0000  12.0107
    211    2 C     6     13.230017     53.732598      5.775000   4.0000  12.0107
    212    2 C     6     13.230017     55.090952      5.775000   4.0000  12.0107
    213    2 C     6      5.959983     55.090952      5.775000   4.0000  12.0107
    214    2 C     6     10.818523     55.121198      5.775000   4.0000  12.0107
    215    2 C     6      8.371477     55.121198      5.775000   4.0000  12.0107
    216    1 H     1     14.191809     55.610720      5.775000   1.0000   1.0079
    217    1 H     1      4.998191     55.610720      5.775000   1.0000   1.0079
    218    2 C     6     12.035671     55.825422      5.775000   4.0000  12.0107
    219    2 C     6      7.154329     55.825422      5.775000   4.0000  12.0107
    220    2 C     6      9.595000     55.834382      5.775000   4.0000  12.0107
    221    2 C     6      9.595000     57.253227      5.775000   4.0000  12.0107
    222    2 C     6      7.154329     57.262187      5.775000   4.0000  12.0107
    223    2 C     6     12.035671     57.262187      5.775000   4.0000  12.0107
    224    1 H     1      4.998191     57.476890      5.775000   1.0000   1.0079
    225    1 H     1     14.191809     57.476890      5.775000   1.0000   1.0079
    226    2 C     6     10.818523     57.966412      5.775000   4.0000  12.0107
    227    2 C     6      8.371477     57.966412      5.775000   4.0000  12.0107
    228    2 C     6     13.230017     57.996658      5.775000   4.0000  12.0107
    229    2 C     6      5.959983     57.996658      5.775000   4.0000  12.0107
    230    2 C     6     13.230017     59.355012      5.775000   4.0000  12.0107
    231    2 C     6      5.959983     59.355012      5.775000   4.0000  12.0107
    232    2 C     6      8.371477     59.385257      5.775000   4.0000  12.0107
    233    2 C     6     10.818523     59.385257      5.775000   4.0000  12.0107
    234    1 H     1      4.998191     59.874779      5.775000   1.0000   1.0079
    235    1 H     1     14.191809     59.874779      5.775000   1.0000   1.0079
    236    2 C     6     12.035671     60.089482      5.775000   4.0000  12.0107
    237    2 C     6      7.154329     60.089482      5.775000   4.0000  12.0107
    238    2 C     6      9.595000     60.098442      5.775000   4.0000  12.0107
    239    2 C     6      9.595000     61.517287      5.775000   4.0000  12.0107
    240    2 C     6      7.154329     61.526247      5.775000   4.0000  12.0107
    241    2 C     6     12.035671     61.526247      5.775000   4.0000  12.0107
    242    1 H     1     14.191809     61.740950      5.775000   1.0000   1.0079
    243    1 H     1      4.998191     61.740950      5.775000   1.0000   1.0079
    244    2 C     6      8.371477     62.230472      5.775000   4.0000  12.0107
    245    2 C     6     10.818523     62.230472      5.775000   4.0000  12.0107
    246    2 C     6     13.230017     62.260717      5.775000   4.0000  12.0107
    247    2 C     6      5.959983     62.260717      5.775000   4.0000  12.0107
    248    2 C     6      5.959983     63.619072      5.775000   4.0000  12.0107
    249    2 C     6     13.230017     63.619072      5.775000   4.0000  12.0107
    250    2 C     6      8.371477     63.649317      5.775000   4.0000  12.0107
    251    2 C     6     10.818523     63.649317      5.775000   4.0000  12.0107
    252    1 H     1     14.191809     64.138839      5.775000   1.0000   1.0079
    253    1 H     1      4.998191     64.138839      5.775000   1.0000   1.0079
    254    2 C     6     12.035671     64.353542      5.775000   4.0000  12.0107
    255    2 C     6      7.154329     64.353542      5.775000   4.0000  12.0107
    256    2 C     6      9.595000     64.362502      5.775000   4.0000  12.0107
    257    2 C     6      9.595000     65.781347      5.775000   4.0000  12.0107
    258    2 C     6     12.035671     65.790307      5.775000   4.0000  12.0107
    259    2 C     6      7.154329     65.790307      5.775000   4.0000  12.0107
    260    1 H     1      4.998191     66.005010      5.775000   1.0000   1.0079
    261    1 H     1     14.191809     66.005010      5.775000   1.0000   1.0079
    262    2 C     6      8.371477     66.494532      5.775000   4.0000  12.0107
    263    2 C     6     10.818523     66.494532      5.775000   4.0000  12.0107
    264    2 C     6      5.959983     66.524777      5.775000   4.0000  12.0107
    265    2 C     6     13.230017     66.524777      5.775000   4.0000  12.0107
    266    2 C     6     13.230017     67.883131      5.775000   4.0000  12.0107
    267    2 C     6      5.959983     67.883131      5.775000   4.0000  12.0107
    268    2 C     6     10.818523     67.913377      5.775000   4.0000  12.0107
    269    2 C     6      8.371477     67.913377      5.775000   4.0000  12.0107
    270    1 H     1      4.998191     68.402899      5.775000   1.0000   1.0079
    271    1 H     1     14.191809     68.402899      5.775000   1.0000   1.0079
    272    2 C     6      7.154329     68.617602      5.775000   4.0000  12.0107
    273    2 C     6     12.035671     68.617602      5.775000   4.0000  12.0107
    274    2 C     6      9.595000     68.626562      5.775000   4.0000  12.0107
    275    2 C     6      9.595000     70.045407      5.775000   4.0000  12.0107
    276    2 C     6      7.154329     70.054367      5.775000   4.0000  12.0107
    277    2 C     6     12.035671     70.054367      5.775000   4.0000  12.0107
    278    1 H     1     14.191809     70.269070      5.775000   1.0000   1.0079
    279    1 H     1      4.998191     70.269070      5.775000   1.0000   1.0079
    280    2 C     6      8.371477     70.758591      5.775000   4.0000  12.0107
    281    2 C     6     10.818523     70.758591      5.775000   4.0000  12.0107
    282    2 C     6      5.959983     70.788837      5.775000   4.0000  12.0107
    283    2 C     6     13.230017     70.788837      5.775000   4.0000  12.0107
    284    2 C     6     13.230017     72.147191      5.775000   4.0000  12.0107
    285    2 C     6      5.959983     72.147191      5.775000   4.0000  12.0107
    286    2 C     6     10.818523     72.177437      5.775000   4.0000  12.0107
    287    2 C     6      8.371477     72.177437      5.775000   4.0000  12.0107
    288    1 H     1     14.191809     72.666959      5.775000   1.0000   1.0079
    289    1 H     1      4.998191     72.666959      5.775000   1.0000   1.0079
    290    2 C     6      7.154329     72.881661      5.775000   4.0000  12.0107
    291    2 C     6     12.035671     72.881661      5.775000   4.0000  12.0107
    292    2 C     6      9.595000     72.890621      5.775000   4.0000  12.0107
    293    2 C     6      9.595000     74.309466      5.775000   4.0000  12.0107
    294    2 C     6      7.154329     74.318426      5.775000   4.0000  12.0107
    295    2 C     6     12.035671     74.318426      5.775000   4.0000  12.0107
    296    1 H     1     14.191809     74.533129      5.775000   1.0000   1.0079
    297    1 H     1      4.998191     74.533129      5.775000   1.0000   1.0079
    298    2 C     6      8.371477     75.022651      5.775000   4.0000  12.0107
    299    2 C     6     10.818523     75.022651      5.775000   4.0000  12.0107
    300    2 C     6     13.230017     75.052897      5.775000   4.0000  12.0107
    301    2 C     6      5.959983     75.052897      5.775000   4.0000  12.0107
    302    2 C     6     13.230017     76.411251      5.775000   4.0000  12.0107
    303    2 C     6      5.959983     76.411251      5.775000   4.0000  12.0107
    304    2 C     6     10.818523     76.441496      5.775000   4.0000  12.0107
    305    2 C     6      8.371477     76.441496      5.775000   4.0000  12.0107
    306    1 H     1      4.998191     76.931018      5.775000   1.0000   1.0079
    307    1 H     1     14.191809     76.931018      5.775000   1.0000   1.0079
    308    2 C     6     12.035671     77.145721      5.775000   4.0000  12.0107
    309    2 C     6      7.154329     77.145721      5.775000   4.0000  12.0107
    310    2 C     6      9.595000     77.154681      5.775000   4.0000  12.0107
    311    2 C     6      9.595000     78.573526      5.775000   4.0000  12.0107
    312    2 C     6      7.154329     78.582486      5.775000   4.0000  12.0107
    313    2 C     6     12.035671     78.582486      5.775000   4.0000  12.0107
    314    1 H     1     14.191809     78.797189      5.775000   1.0000   1.0079
    315    1 H     1      4.998191     78.797189      5.775000   1.0000   1.0079
    316    2 C     6     10.818523     79.286711      5.775000   4.0000  12.0107
    317    2 C     6      8.371477     79.286711      5.775000   4.0000  12.0107
    318    2 C     6     13.230017     79.316956      5.775000   4.0000  12.0107
    319    2 C     6      5.959983     79.316956      5.775000   4.0000  12.0107
    320    2 C     6     13.230017     80.675311      5.775000   4.0000  12.0107
    321    2 C     6      5.959983     80.675311      5.775000   4.0000  12.0107
    322    2 C     6      8.371477     80.705556      5.775000   4.0000  12.0107
    323    2 C     6     10.818523     80.705556      5.775000   4.0000  12.0107
    324    1 H     1      4.998191     81.195078      5.775000   1.0000   1.0079
    325    1 H     1     14.191809     81.195078      5.775000   1.0000   1.0079
    326    2 C     6      7.154329     81.409781      5.775000   4.0000  12.0107
    327    2 C     6     12.035671     81.409781      5.775000   4.0000  12.0107
    328    2 C     6      9.595000     81.418741      5.775000   4.0000  12.0107
    329    2 C     6      9.595000     82.837586      5.775000   4.0000  12.0107
    330    2 C     6      7.154329     82.846546      5.775000   4.0000  12.0107
    331    2 C     6     12.035671     82.846546      5.775000   4.0000  12.0107
    332    1 H     1      4.998191     83.061249      5.775000   1.0000   1.0079
    333    1 H     1     14.191809     83.061249      5.775000   1.0000   1.0079
    334    2 C     6      8.371477     83.550771      5.775000   4.0000  12.0107
    335    2 C     6     10.818523     83.550771      5.775000   4.0000  12.0107
    336    2 C     6     13.230017     83.581016      5.775000   4.0000  12.0107
    337    2 C     6      5.959983     83.581016      5.775000   4.0000  12.0107
    338    2 C     6      5.959983     84.939370      5.775000   4.0000  12.0107
    339    2 C     6     13.230017     84.939370      5.775000   4.0000  12.0107
    340    2 C     6      8.371477     84.969616      5.775000   4.0000  12.0107
    341    2 C     6     10.818523     84.969616      5.775000   4.0000  12.0107
    342    1 H     1     14.191809     85.459138      5.775000   1.0000   1.0079
    343    1 H     1      4.998191     85.459138      5.775000   1.0000   1.0079
    344    2 C     6     12.035671     85.673841      5.775000   4.0000  12.0107
    345    2 C     6      7.154329     85.673841      5.775000   4.0000  12.0107
    346    2 C     6      9.595000     85.682801      5.775000   4.0000  12.0107
    347    2 C     6      9.595000     87.101646      5.775000   4.0000  12.0107
    348    2 C     6      7.154329     87.110606      5.775000   4.0000  12.0107
    349    2 C     6     12.035671     87.110606      5.775000   4.0000  12.0107
    350    1 H     1     14.191809     87.325309      5.775000   1.0000   1.0079
    351    1 H     1      4.998191     87.325309      5.775000   1.0000   1.0079
    352    2 C     6     10.818523     87.814830      5.775000   4.0000  12.0107
    353    2 C     6      8.371477     87.814830      5.775000   4.0000  12.0107
    354    2 C     6     13.230017     87.845076      5.775000   4.0000  12.0107
    355    2 C     6      5.959983     87.845076      5.775000   4.0000  12.0107
    356    2 C     6      5.959983     89.203430      5.775000   4.0000  12.0107
    357    2 C     6     13.230017     89.203430      5.775000   4.0000  12.0107
    358    2 C     6     10.818523     89.233676      5.775000   4.0000  12.0107
    359    2 C     6      8.371477     89.233676      5.775000   4.0000  12.0107
    360    1 H     1      4.998191     89.723198      5.775000   1.0000   1.0079
    361    1 H     1     14.191809     89.723198      5.775000   1.0000   1.0079
    362    2 C     6      7.154329     89.937900      5.775000   4.0000  12.0107
    363    2 C     6     12.035671     89.937900      5.775000   4.0000  12.0107
    364    2 C     6      9.595000     89.946860      5.775000   4.0000  12.0107
    365    2 C     6      9.595000     91.365705      5.775000   4.0000  12.0107
    366    2 C     6     12.035671     91.374665      5.775000   4.0000  12.0107
    367    2 C     6      7.154329     91.374665      5.775000   4.0000  12.0107
    368    1 H     1      4.998191     91.589368      5.775000   1.0000   1.0079
    369    1 H     1     14.191809     91.589368      5.775000   1.0000   1.0079
    370    2 C     6     10.818523     92.078890      5.775000   4.0000  12.0107
    371    2 C     6      8.371477     92.078890      5.775000   4.0000  12.0107
    372    2 C     6      5.959983     92.109136      5.775000   4.0000  12.0107
    373    2 C     6     13.230017     92.109136      5.775000   4.0000  12.0107
    374    2 C     6      5.959983     93.467490      5.775000   4.0000  12.0107
    375    2 C     6     13.230017     93.467490      5.775000   4.0000  12.0107
    376    2 C     6     10.818523     93.497735      5.775000   4.0000  12.0107
    377    2 C     6      8.371477     93.497735      5.775000   4.0000  12.0107
    378    1 H     1     14.191809     93.987257      5.775000   1.0000   1.0079
    379    1 H     1      4.998191     93.987257      5.775000   1.0000   1.0079
    380    2 C     6      7.154329     94.201960      5.775000   4.0000  12.0107
    381    2 C     6     12.035671     94.201960      5.775000   4.0000  12.0107
    382    2 C     6      9.595000     94.210920      5.775000   4.0000  12.0107
    383    2 C     6      9.595000     95.629765      5.775000   4.0000  12.0107
    384    2 C     6     12.035671     95.638725      5.775000   4.0000  12.0107
    385    2 C     6      7.154329     95.638725      5.775000   4.0000  12.0107
    386    1 H     1      4.998191     95.853428      5.775000   1.0000   1.0079
    387    1 H     1     14.191809     95.853428      5.775000   1.0000   1.0079
    388    2 C     6      8.371477     96.342950      5.775000   4.0000  12.0107
    389    2 C     6     10.818523     96.342950      5.775000   4.0000  12.0107
    390    2 C     6      5.959983     96.373195      5.775000   4.0000  12.0107
    391    2 C     6     13.230017     96.373195      5.775000   4.0000  12.0107
    392    2 C     6     13.230017     97.731550      5.775000   4.0000  12.0107
    393    2 C     6      5.959983     97.731550      5.775000   4.0000  12.0107
    394    2 C     6      8.371477     97.761795      5.775000   4.0000  12.0107
    395    2 C     6     10.818523     97.761795      5.775000   4.0000  12.0107
    396    1 H     1      4.998191     98.251317      5.775000   1.0000   1.0079
    397    1 H     1     14.191809     98.251317      5.775000   1.0000   1.0079
    398    2 C     6     12.035671     98.466020      5.775000   4.0000  12.0107
    399    2 C     6      7.154329     98.466020      5.775000   4.0000  12.0107
    400    2 C     6      9.595000     98.474980      5.775000   4.0000  12.0107
    401    2 C     6      9.595000     99.893825      5.775000   4.0000  12.0107
    402    2 C     6      7.154329     99.902785      5.775000   4.0000  12.0107
    403    2 C     6     12.035671     99.902785      5.775000   4.0000  12.0107
    404    1 H     1      4.998191    100.117488      5.775000   1.0000   1.0079
    405    1 H     1     14.191809    100.117488      5.775000   1.0000   1.0079
    406    2 C     6     10.818523    100.607010      5.775000   4.0000  12.0107
    407    2 C     6      8.371477    100.607010      5.775000   4.0000  12.0107
    408    2 C     6     13.230017    100.637255      5.775000   4.0000  12.0107
    409    2 C     6      5.959983    100.637255      5.775000   4.0000  12.0107
    410    2 C     6     13.230017    101.995609      5.775000   4.0000  12.0107
    411    2 C     6      5.959983    101.995609      5.775000   4.0000  12.0107
    412    2 C     6     10.818523    102.025855      5.775000   4.0000  12.0107
    413    2 C     6      8.371477    102.025855      5.775000   4.0000  12.0107
    414    1 H     1      4.998191    102.515377      5.775000   1.0000   1.0079
    415    1 H     1     14.191809    102.515377      5.775000   1.0000   1.0079
    416    2 C     6      7.154329    102.730080      5.775000   4.0000  12.0107
    417    2 C     6     12.035671    102.730080      5.775000   4.0000  12.0107
    418    2 C     6      9.595000    102.739040      5.775000   4.0000  12.0107
    419    2 C     6      9.595000    104.157885      5.775000   4.0000  12.0107
    420    2 C     6     12.035671    104.166845      5.775000   4.0000  12.0107
    421    2 C     6      7.154329    104.166845      5.775000   4.0000  12.0107
    422    1 H     1     14.191809    104.381548      5.775000   1.0000   1.0079
    423    1 H     1      4.998191    104.381548      5.775000   1.0000   1.0079
    424    2 C     6     10.818523    104.871070      5.775000   4.0000  12.0107
    425    2 C     6      8.371477    104.871070      5.775000   4.0000  12.0107
    426    2 C     6     13.230017    104.901315      5.775000   4.0000  12.0107
    427    2 C     6      5.959983    104.901315      5.775000   4.0000  12.0107
    428    2 C     6      5.959983    106.259669      5.775000   4.0000  12.0107
    429    2 C     6     13.230017    106.259669      5.775000   4.0000  12.0107
    430    2 C     6      8.371477    106.289915      5.775000   4.0000  12.0107
    431    2 C     6     10.818523    106.289915      5.775000   4.0000  12.0107
    432    1 H     1      4.998191    106.779437      5.775000   1.0000   1.0079
    433    1 H     1     14.191809    106.779437      5.775000   1.0000   1.0079
    434    2 C     6     12.035671    106.994139      5.775000   4.0000  12.0107
    435    2 C     6      7.154329    106.994139      5.775000   4.0000  12.0107
    436    2 C     6      9.595000    107.003099      5.775000   4.0000  12.0107
    437    2 C     6      9.595000    108.421944      5.775000   4.0000  12.0107
    438    2 C     6     12.035671    108.430904      5.775000   4.0000  12.0107
    439    2 C     6      7.154329    108.430904      5.775000   4.0000  12.0107
    440    1 H     1      4.998191    108.645607      5.775000   1.0000   1.0079
    441    1 H     1     14.191809    108.645607      5.775000   1.0000   1.0079
    442    2 C     6     10.818523    109.135129      5.775000   4.0000  12.0107
    443    2 C     6      8.371477    109.135129      5.775000   4.0000  12.0107
    444    2 C     6     13.230017    109.165375      5.775000   4.0000  12.0107
    445    2 C     6      5.959983    109.165375      5.775000   4.0000  12.0107
    446    2 C     6      5.959983    110.523729      5.775000   4.0000  12.0107
    447    2 C     6     13.230017    110.523729      5.775000   4.0000  12.0107
    448    2 C     6      8.371477    110.553974      5.775000   4.0000  12.0107
    449    2 C     6     10.818523    110.553974      5.775000   4.0000  12.0107
    450    1 H     1      4.998191    111.043496      5.775000   1.0000   1.0079
    451    1 H     1     14.191809    111.043496      5.775000   1.0000   1.0079
    452    2 C     6     12.035671    111.258199      5.775000   4.0000  12.0107
    453    2 C     6      7.154329    111.258199      5.775000   4.0000  12.0107
    454    2 C     6      9.595000    111.267159      5.775000   4.0000  12.0107
    455    2 C     6      9.595000    112.686004      5.775000   4.0000  12.0107
    456    2 C     6     12.035671    112.694964      5.775000   4.0000  12.0107
    457    2 C     6      7.154329    112.694964      5.775000   4.0000  12.0107
    458    1 H     1     14.191809    112.909667      5.775000   1.0000   1.0079
    459    1 H     1      4.998191    112.909667      5.775000   1.0000   1.0079
    460    2 C     6      8.371477    113.399189      5.775000   4.0000  12.0107
    461    2 C     6     10.818523    113.399189      5.775000   4.0000  12.0107
    462    2 C     6     13.230017    113.429434      5.775000   4.0000  12.0107
    463    2 C     6      5.959983    113.429434      5.775000   4.0000  12.0107
    464    2 C     6     13.230017    114.787789      5.775000   4.0000  12.0107
    465    2 C     6      5.959983    114.787789      5.775000   4.0000  12.0107
    466    2 C     6     10.818523    114.818034      5.775000   4.0000  12.0107
    467    2 C     6      8.371477    114.818034      5.775000   4.0000  12.0107
    468    1 H     1     14.191809    115.307556      5.775000   1.0000   1.0079
    469    1 H     1      4.998191    115.307556      5.775000   1.0000   1.0079
    470    2 C     6      7.154329    115.522259      5.775000   4.0000  12.0107
    471    2 C     6     12.035671    115.522259      5.775000   4.0000  12.0107
    472    2 C     6      9.595000    115.531219      5.775000   4.0000  12.0107
    473    2 C     6      9.595000    116.950064      5.775000   4.0000  12.0107
    474    2 C     6      7.154329    116.959024      5.775000   4.0000  12.0107
    475    2 C     6     12.035671    116.959024      5.775000   4.0000  12.0107
    476    1 H     1      4.998191    117.173727      5.775000   1.0000   1.0079
    477    1 H     1     14.191809    117.173727      5.775000   1.0000   1.0079
    478    2 C     6     10.818523    117.663249      5.775000   4.0000  12.0107
    479    2 C     6      8.371477    117.663249      5.775000   4.0000  12.0107
    480    2 C     6     13.230017    117.693494      5.775000   4.0000  12.0107
    481    2 C     6      5.959983    117.693494      5.775000   4.0000  12.0107
    482    2 C     6      5.959983    119.051848      5.775000   4.0000  12.0107
    483    2 C     6     13.230017    119.051848      5.775000   4.0000  12.0107
    484    2 C     6     10.818523    119.082094      5.775000   4.0000  12.0107
    485    2 C     6      8.371477    119.082094      5.775000   4.0000  12.0107
    486    1 H     1     14.191809    119.571616      5.775000   1.0000   1.0079
    487    1 H     1      4.998191    119.571616      5.775000   1.0000   1.0079
    488    2 C     6     12.035671    119.786319      5.775000   4.0000  12.0107
    489    2 C     6      7.154329    119.786319      5.775000   4.0000  12.0107
    490    2 C     6      9.595000    119.795279      5.775000   4.0000  12.0107
    491    2 C     6      9.595000    121.214124      5.775000   4.0000  12.0107
    492    2 C     6     12.035671    121.223084      5.775000   4.0000  12.0107
    493    2 C     6      7.154329    121.223084      5.775000   4.0000  12.0107
    494    1 H     1      4.998191    121.437787      5.775000   1.0000   1.0079
    495    1 H     1     14.191809    121.437787      5.775000   1.0000   1.0079
    496    2 C     6      8.371477    121.927309      5.775000   4.0000  12.0107
    497    2 C     6     10.818523    121.927309      5.775000   4.0000  12.0107
    498    2 C     6     13.230017    121.957554      5.775000   4.0000  12.0107
    499    2 C     6      5.959983    121.957554      5.775000   4.0000  12.0107
    500    2 C     6      5.959983    123.315908      5.775000   4.0000  12.0107
    501    2 C     6     13.230017    123.315908      5.775000   4.0000  12.0107
    502    2 C     6     10.818523    123.346154      5.775000   4.0000  12.0107
    503    2 C     6      8.371477    123.346154      5.775000   4.0000  12.0107
    504    1 H     1      4.998191    123.835676      5.775000   1.0000   1.0079
    505    1 H     1     14.191809    123.835676      5.775000   1.0000   1.0079
    506    2 C     6      7.154329    124.050379      5.775000   4.0000  12.0107
    507    2 C     6     12.035671    124.050379      5.775000   4.0000  12.0107
    508    2 C     6      9.595000    124.059338      5.775000   4.0000  12.0107
    509    2 C     6      9.595000    125.478183      5.775000   4.0000  12.0107
    510    2 C     6     12.035671    125.487143      5.775000   4.0000  12.0107
    511    2 C     6      7.154329    125.487143      5.775000   4.0000  12.0107
    512    1 H     1      4.998191    125.701846      5.775000   1.0000   1.0079
    513    1 H     1     14.191809    125.701846      5.775000   1.0000   1.0079
    514    2 C     6      8.371477    126.191368      5.775000   4.0000  12.0107
    515    2 C     6     10.818523    126.191368      5.775000   4.0000  12.0107
    516    2 C     6      5.959983    126.221614      5.775000   4.0000  12.0107
    517    2 C     6     13.230017    126.221614      5.775000   4.0000  12.0107
    518    2 C     6     13.230017    127.579968      5.775000   4.0000  12.0107
    519    2 C     6      5.959983    127.579968      5.775000   4.0000  12.0107
    520    2 C     6     10.818523    127.610213      5.775000   4.0000  12.0107
    521    2 C     6      8.371477    127.610213      5.775000   4.0000  12.0107
    522    1 H     1     14.191809    128.099735      5.775000   1.0000   1.0079
    523    1 H     1      4.998191    128.099735      5.775000   1.0000   1.0079
    524    2 C     6      7.154329    128.314438      5.775000   4.0000  12.0107
    525    2 C     6     12.035671    128.314438      5.775000   4.0000  12.0107
    526    2 C     6      9.595000    128.323398      5.775000   4.0000  12.0107
    527    2 C     6      9.595000    129.742243      5.775000   4.0000  12.0107
    528    2 C     6     12.035671    129.751203      5.775000   4.0000  12.0107
    529    2 C     6      7.154329    129.751203      5.775000   4.0000  12.0107
    530    1 H     1      4.998191    129.965906      5.775000   1.0000   1.0079
    531    1 H     1     14.191809    129.965906      5.775000   1.0000   1.0079
    532    2 C     6     10.818523    130.455428      5.775000   4.0000  12.0107
    533    2 C     6      8.371477    130.455428      5.775000   4.0000  12.0107
    534    2 C     6     13.230017    130.485673      5.775000   4.0000  12.0107
    535    2 C     6      5.959983    130.485673      5.775000   4.0000  12.0107
    536    2 C     6      5.959983    131.844028      5.775000   4.0000  12.0107
    537    2 C     6     13.230017    131.844028      5.775000   4.0000  12.0107
    538    2 C     6      8.371477    131.874273      5.775000   4.0000  12.0107
    539    2 C     6     10.818523    131.874273      5.775000   4.0000  12.0107
    540    1 H     1      4.998191    132.363795      5.775000   1.0000   1.0079
    541    1 H     1     14.191809    132.363795      5.775000   1.0000   1.0079
    542    2 C     6     12.035671    132.578498      5.775000   4.0000  12.0107
    543    2 C     6      7.154329    132.578498      5.775000   4.0000  12.0107
    544    2 C     6      9.595000    132.587458      5.775000   4.0000  12.0107
    545    2 C     6      9.595000    134.006303      5.775000   4.0000  12.0107
    546    2 C     6     12.035671    134.015263      5.775000   4.0000  12.0107
    547    2 C     6      7.154329    134.015263      5.775000   4.0000  12.0107
    548    1 H     1     14.191809    134.229966      5.775000   1.0000   1.0079
    549    1 H     1      4.998191    134.229966      5.775000   1.0000   1.0079
    550    2 C     6      8.371477    134.719488      5.775000   4.0000  12.0107
    551    2 C     6     10.818523    134.719488      5.775000   4.0000  12.0107
    552    2 C     6      5.959983    134.749733      5.775000   4.0000  12.0107
    553    2 C     6     13.230017    134.749733      5.775000   4.0000  12.0107
    554    2 C     6      5.959983    136.108087      5.775000   4.0000  12.0107
    555    2 C     6     13.230017    136.108087      5.775000   4.0000  12.0107
    556    2 C     6     10.818523    136.138333      5.775000   4.0000  12.0107
    557    2 C     6      8.371477    136.138333      5.775000   4.0000  12.0107
    558    1 H     1     14.191809    136.627855      5.775000   1.0000   1.0079
    559    1 H     1      4.998191    136.627855      5.775000   1.0000   1.0079
    560    2 C     6      7.154329    136.842558      5.775000   4.0000  12.0107
    561    2 C     6     12.035671    136.842558      5.775000   4.0000  12.0107
    562    2 C     6      9.595000    136.851518      5.775000   4.0000  12.0107
    563    2 C     6      9.595000    138.270363      5.775000   4.0000  12.0107
    564    2 C     6      7.154329    138.279323      5.775000   4.0000  12.0107
    565    2 C     6     12.035671    138.279323      5.775000   4.0000  12.0107
    566    1 H     1     14.191809    138.494026      5.775000   1.0000   1.0079
    567    1 H     1      4.998191    138.494026      5.775000   1.0000   1.0079
    568    2 C     6     10.818523    138.983548      5.775000   4.0000  12.0107
    569    2 C     6      8.371477    138.983548      5.775000   4.0000  12.0107
    570    2 C     6     13.230017    139.013793      5.775000   4.0000  12.0107
    571    2 C     6      5.959983    139.013793      5.775000   4.0000  12.0107
    572    2 C     6      5.959983    140.372147      5.775000   4.0000  12.0107
    573    2 C     6     13.230017    140.372147      5.775000   4.0000  12.0107
    574    2 C     6     10.818523    140.402393      5.775000   4.0000  12.0107
    575    2 C     6      8.371477    140.402393      5.775000   4.0000  12.0107
    576    1 H     1      4.998191    140.891915      5.775000   1.0000   1.0079
    577    1 H     1     14.191809    140.891915      5.775000   1.0000   1.0079
    578    2 C     6      7.154329    141.106618      5.775000   4.0000  12.0107
    579    2 C     6     12.035671    141.106618      5.775000   4.0000  12.0107
    580    2 C     6      9.595000    141.115578      5.775000   4.0000  12.0107
    581    2 C     6      9.595000    142.534422      5.775000   4.0000  12.0107
    582    2 C     6     12.035671    142.543382      5.775000   4.0000  12.0107
    583    2 C     6      7.154329    142.543382      5.775000   4.0000  12.0107
    584    1 H     1     14.191809    142.758085      5.775000   1.0000   1.0079
    585    1 H     1      4.998191    142.758085      5.775000   1.0000   1.0079
    586    2 C     6      8.371477    143.247607      5.775000   4.0000  12.0107
    587    2 C     6     10.818523    143.247607      5.775000   4.0000  12.0107
    588    2 C     6      5.959983    143.277853      5.775000   4.0000  12.0107
    589    2 C     6     13.230017    143.277853      5.775000   4.0000  12.0107
    590    2 C     6     13.230017    144.636207      5.775000   4.0000  12.0107
    591    2 C     6      5.959983    144.636207      5.775000   4.0000  12.0107
    592    2 C     6     10.818523    144.666452      5.775000   4.0000  12.0107
    593    2 C     6      8.371477    144.666452      5.775000   4.0000  12.0107
    594    1 H     1     14.191809    145.155974      5.775000   1.0000   1.0079
    595    1 H     1      4.998191    145.155974      5.775000   1.0000   1.0079
    596    2 C     6     12.035671    145.370677      5.775000   4.0000  12.0107
    597    2 C     6      7.154329    145.370677      5.775000   4.0000  12.0107
    598    2 C     6      9.595000    145.379637      5.775000   4.0000  12.0107
    599    2 C     6      9.595000    146.798482      5.775000   4.0000  12.0107
    600    2 C     6      7.154329    146.807442      5.775000   4.0000  12.0107
    601    2 C     6     12.035671    146.807442      5.775000   4.0000  12.0107
    602    1 H     1      4.998191    147.022145      5.775000   1.0000   1.0079
    603    1 H     1     14.191809    147.022145      5.775000   1.0000   1.0079
    604    2 C     6     10.818523    147.511667      5.775000   4.0000  12.0107
    605    2 C     6      8.371477    147.511667      5.775000   4.0000  12.0107
    606    2 C     6      5.959983    147.541913      5.775000   4.0000  12.0107
    607    2 C     6     13.230017    147.541913      5.775000   4.0000  12.0107
    608    2 C     6      5.959983    148.900267      5.775000   4.0000  12.0107
    609    2 C     6     13.230017    148.900267      5.775000   4.0000  12.0107
    610    2 C     6     10.818523    148.930512      5.775000   4.0000  12.0107
    611    2 C     6      8.371477    148.930512      5.775000   4.0000  12.0107
    612    1 H     1      4.998191    149.420034      5.775000   1.0000   1.0079
    613    1 H     1     14.191809    149.420034      5.775000   1.0000   1.0079
    614    2 C     6      7.154329    149.634737      5.775000   4.0000  12.0107
    615    2 C     6     12.035671    149.634737      5.775000   4.0000  12.0107
    616    2 C     6      9.595000    149.643697      5.775000   4.0000  12.0107
    617    2 C     6      9.595000    151.062542      5.775000   4.0000  12.0107
    618    2 C     6      7.154329    151.071502      5.775000   4.0000  12.0107
    619    2 C     6     12.035671    151.071502      5.775000   4.0000  12.0107
    620    1 H     1     14.191809    151.286205      5.775000   1.0000   1.0079
    621    1 H     1      4.998191    151.286205      5.775000   1.0000   1.0079
    622    2 C     6      8.371477    151.775727      5.775000   4.0000  12.0107
    623    2 C     6     10.818523    151.775727      5.775000   4.0000  12.0107
    624    2 C     6      5.959983    151.805972      5.775000   4.0000  12.0107
    625    2 C     6     13.230017    151.805972      5.775000   4.0000  12.0107
    626    2 C     6     13.230017    153.164327      5.775000   4.0000  12.0107
    627    2 C     6      5.959983    153.164327      5.775000   4.0000  12.0107
    628    2 C     6      8.371477    153.194572      5.775000   4.0000  12.0107
    629    2 C     6     10.818523    153.194572      5.775000   4.0000  12.0107
    630    1 H     1      4.998191    153.684094      5.775000   1.0000   1.0079
    631    1 H     1     14.191809    153.684094      5.775000   1.0000   1.0079
    632    2 C     6     12.035671    153.898797      5.775000   4.0000  12.0107
    633    2 C     6      7.154329    153.898797      5.775000   4.0000  12.0107
    634    2 C     6      9.595000    153.907757      5.775000   4.0000  12.0107
    635    2 C     6      9.595000    155.326602      5.775000   4.0000  12.0107
    636    2 C     6     12.035671    155.335562      5.775000   4.0000  12.0107
    637    2 C     6      7.154329    155.335562      5.775000   4.0000  12.0107
    638    1 H     1      4.998191    155.550265      5.775000   1.0000   1.0079
    639    1 H     1     14.191809    155.550265      5.775000   1.0000   1.0079
    640    2 C     6      8.371477    156.039787      5.775000   4.0000  12.0107
    641    2 C     6     10.818523    156.039787      5.775000   4.0000  12.0107
    642    2 C     6      5.959983    156.070032      5.775000   4.0000  12.0107
    643    2 C     6     13.230017    156.070032      5.775000   4.0000  12.0107
    644    2 C     6      5.959983    157.428386      5.775000   4.0000  12.0107
    645    2 C     6     13.230017    157.428386      5.775000   4.0000  12.0107
    646    2 C     6      8.371477    157.458632      5.775000   4.0000  12.0107
    647    2 C     6     10.818523    157.458632      5.775000   4.0000  12.0107
    648    1 H     1     14.191809    157.948154      5.775000   1.0000   1.0079
    649    1 H     1      4.998191    157.948154      5.775000   1.0000   1.0079
    650    2 C     6      7.154329    158.162857      5.775000   4.0000  12.0107
    651    2 C     6     12.035671    158.162857      5.775000   4.0000  12.0107
    652    2 C     6      9.595000    158.171817      5.775000   4.0000  12.0107
    653    2 C     6      9.595000    159.590662      5.775000   4.0000  12.0107
    654    2 C     6      7.154329    159.599621      5.775000   4.0000  12.0107
    655    2 C     6     12.035671    159.599621      5.775000   4.0000  12.0107
    656    1 H     1     14.191809    159.814324      5.775000   1.0000   1.0079
    657    1 H     1      4.998191    159.814324      5.775000   1.0000   1.0079
    658    2 C     6      8.371477    160.303846      5.775000   4.0000  12.0107
    659    2 C     6     10.818523    160.303846      5.775000   4.0000  12.0107
    660    2 C     6      5.959983    160.334092      5.775000   4.0000  12.0107
    661    2 C     6     13.230017    160.334092      5.775000   4.0000  12.0107
    662    2 C     6     13.230017    161.692446      5.775000   4.0000  12.0107
    663    2 C     6      5.959983    161.692446      5.775000   4.0000  12.0107
    664    2 C     6     10.818523    161.722691      5.775000   4.0000  12.0107
    665    2 C     6      8.371477    161.722691      5.775000   4.0000  12.0107
    666    1 H     1     14.191809    162.212213      5.775000   1.0000   1.0079
    667    1 H     1      4.998191    162.212213      5.775000   1.0000   1.0079
    668    2 C     6     12.035671    162.426916      5.775000   4.0000  12.0107
    669    2 C     6      7.154329    162.426916      5.775000   4.0000  12.0107
    670    2 C     6      9.595000    162.435876      5.775000   4.0000  12.0107
    671    2 C     6      9.595000    163.854721      5.775000   4.0000  12.0107
    672    2 C     6     12.035671    163.863681      5.775000   4.0000  12.0107
    673    2 C     6      7.154329    163.863681      5.775000   4.0000  12.0107
    674    1 H     1     14.191809    164.078384      5.775000   1.0000   1.0079
    675    1 H     1      4.998191    164.078384      5.775000   1.0000   1.0079
    676    2 C     6     10.818523    164.567906      5.775000   4.0000  12.0107
    677    2 C     6      8.371477    164.567906      5.775000   4.0000  12.0107
    678    2 C     6      5.959983    164.598152      5.775000   4.0000  12.0107
    679    2 C     6     13.230017    164.598152      5.775000   4.0000  12.0107
    680    2 C     6     13.230017    165.956506      5.775000   4.0000  12.0107
    681    2 C     6      5.959983    165.956506      5.775000   4.0000  12.0107
    682    2 C     6     10.818523    165.986751      5.775000   4.0000  12.0107
    683    2 C     6      8.371477    165.986751      5.775000   4.0000  12.0107
    684    1 H     1      4.998191    166.476273      5.775000   1.0000   1.0079
    685    1 H     1     14.191809    166.476273      5.775000   1.0000   1.0079
    686    2 C     6      7.154329    166.690976      5.775000   4.0000  12.0107
    687    2 C     6     12.035671    166.690976      5.775000   4.0000  12.0107
    688    2 C     6      9.595000    166.699936      5.775000   4.0000  12.0107
    689    2 C     6      9.595000    168.118781      5.775000   4.0000  12.0107
    690    2 C     6     12.035671    168.127741      5.775000   4.0000  12.0107
    691    2 C     6      7.154329    168.127741      5.775000   4.0000  12.0107
    692    1 H     1      4.998191    168.342444      5.775000   1.0000   1.0079
    693    1 H     1     14.191809    168.342444      5.775000   1.0000   1.0079
    694    2 C     6     10.818523    168.831966      5.775000   4.0000  12.0107
    695    2 C     6      8.371477    168.831966      5.775000   4.0000  12.0107
    696    2 C     6      5.959983    168.862211      5.775000   4.0000  12.0107
    697    2 C     6     13.230017    168.862211      5.775000   4.0000  12.0107
    698    2 C     6      5.959983    170.220566      5.775000   4.0000  12.0107
    699    2 C     6     13.230017    170.220566      5.775000   4.0000  12.0107
    700    2 C     6     10.818523    170.250811      5.775000   4.0000  12.0107
    701    2 C     6      8.371477    170.250811      5.775000   4.0000  12.0107
    702    1 H     1     14.191809    170.740333      5.775000   1.0000   1.0079
    703    1 H     1      4.998191    170.740333      5.775000   1.0000   1.0079
    704    2 C     6      7.154329    170.955036      5.775000   4.0000  12.0107
    705    2 C     6     12.035671    170.955036      5.775000   4.0000  12.0107
    706    2 C     6      9.595000    170.963996      5.775000   4.0000  12.0107
    707    2 C     6      9.595000    172.382841      5.775000   4.0000  12.0107
    708    2 C     6      7.154329    172.391801      5.775000   4.0000  12.0107
    709    2 C     6     12.035671    172.391801      5.775000   4.0000  12.0107
    710    1 H     1     14.191809    172.606504      5.775000   1.0000   1.0079
    711    1 H     1      4.998191    172.606504      5.775000   1.0000   1.0079
    712    2 C     6      8.371477    173.096026      5.775000   4.0000  12.0107
    713    2 C     6     10.818523    173.096026      5.775000   4.0000  12.0107
    714    2 C     6     13.230017    173.126271      5.775000   4.0000  12.0107
    715    2 C     6      5.959983    173.126271      5.775000   4.0000  12.0107
    716    2 C     6     13.230017    174.484625      5.775000   4.0000  12.0107
    717    2 C     6      5.959983    174.484625      5.775000   4.0000  12.0107
    718    2 C     6      8.371477    174.514871      5.775000   4.0000  12.0107
    719    2 C     6     10.818523    174.514871      5.775000   4.0000  12.0107
    720    1 H     1     14.191809    175.004393      5.775000   1.0000   1.0079
    721    1 H     1      4.998191    175.004393      5.775000   1.0000   1.0079
    722    2 C     6     12.035671    175.219096      5.775000   4.0000  12.0107
    723    2 C     6      7.154329    175.219096      5.775000   4.0000  12.0107
    724    2 C     6      9.595000    175.228056      5.775000   4.0000  12.0107
    725    2 C     6      9.595000    176.646901      5.775000   4.0000  12.0107
    726    2 C     6     12.035671    176.655861      5.775000   4.0000  12.0107
    727    2 C     6      7.154329    176.655861      5.775000   4.0000  12.0107
    728    1 H     1      4.998191    176.870563      5.775000   1.0000   1.0079
    729    1 H     1     14.191809    176.870563      5.775000   1.0000   1.0079
    730    2 C     6      8.371477    177.360085      5.775000   4.0000  12.0107
    731    2 C     6     10.818523    177.360085      5.775000   4.0000  12.0107
    732    2 C     6     13.230017    177.390331      5.775000   4.0000  12.0107
    733    2 C     6      5.959983    177.390331      5.775000   4.0000  12.0107
    734    2 C     6     13.230017    178.748685      5.775000   4.0000  12.0107
    735    2 C     6      5.959983    178.748685      5.775000   4.0000  12.0107
    736    2 C     6      8.371477    178.778930      5.775000   4.0000  12.0107
    737    2 C     6     10.818523    178.778930      5.775000   4.0000  12.0107
    738    1 H     1      4.998191    179.268452      5.775000   1.0000   1.0079
    739    1 H     1     14.191809    179.268452      5.775000   1.0000   1.0079
    740    2 C     6     12.035671    179.483155      5.775000   4.0000  12.0107
    741    2 C     6      7.154329    179.483155      5.775000   4.0000  12.0107
    742    2 C     6      9.595000    179.492115      5.775000   4.0000  12.0107
    743    2 C     6      9.595000    180.910960      5.775000   4.0000  12.0107
    744    2 C     6     12.035671    180.919920      5.775000   4.0000  12.0107
    745    2 C     6      7.154329    180.919920      5.775000   4.0000  12.0107
    746    1 H     1     14.191809    181.134623      5.775000   1.0000   1.0079
    747    1 H     1      4.998191    181.134623      5.775000   1.0000   1.0079
    748    2 C     6      8.371477    181.624145      5.775000   4.0000  12.0107
    749    2 C     6     10.818523    181.624145      5.775000   4.0000  12.0107
    750    2 C     6     13.230017    181.654391      5.775000   4.0000  12.0107
    751    2 C     6      5.959983    181.654391      5.775000   4.0000  12.0107
    752    2 C     6      5.959983    183.012745      5.775000   4.0000  12.0107
    753    2 C     6     13.230017    183.012745      5.775000   4.0000  12.0107
    754    2 C     6      8.371477    183.042990      5.775000   4.0000  12.0107
    755    2 C     6     10.818523    183.042990      5.775000   4.0000  12.0107
    756    1 H     1      4.998191    183.532512      5.775000   1.0000   1.0079
    757    1 H     1     14.191809    183.532512      5.775000   1.0000   1.0079
    758    2 C     6      7.154329    183.747215      5.775000   4.0000  12.0107
    759    2 C     6     12.035671    183.747215      5.775000   4.0000  12.0107
    760    2 C     6      9.595000    183.756175      5.775000   4.0000  12.0107
    761    2 C     6      9.595000    185.175020      5.775000   4.0000  12.0107
    762    2 C     6      7.154329    185.183980      5.775000   4.0000  12.0107
    763    2 C     6     12.035671    185.183980      5.775000   4.0000  12.0107
    764    1 H     1     14.191809    185.398683      5.775000   1.0000   1.0079
    765    1 H     1      4.998191    185.398683      5.775000   1.0000   1.0079
    766    2 C     6      8.371477    185.888205      5.775000   4.0000  12.0107
    767    2 C     6     10.818523    185.888205      5.775000   4.0000  12.0107
    768    2 C     6      5.959983    185.918450      5.775000   4.0000  12.0107
    769    2 C     6     13.230017    185.918450      5.775000   4.0000  12.0107
    770    2 C     6      5.959983    187.276805      5.775000   4.0000  12.0107
    771    2 C     6     13.230017    187.276805      5.775000   4.0000  12.0107
    772    2 C     6      8.371477    187.307050      5.775000   4.0000  12.0107
    773    2 C     6     10.818523    187.307050      5.775000   4.0000  12.0107
    774    1 H     1      4.998191    187.796572      5.775000   1.0000   1.0079
    775    1 H     1     14.191809    187.796572      5.775000   1.0000   1.0079
    776    2 C     6      7.154329    188.011275      5.775000   4.0000  12.0107
    777    2 C     6     12.035671    188.011275      5.775000   4.0000  12.0107
    778    2 C     6      9.595000    188.020235      5.775000   4.0000  12.0107
    779    2 C     6      9.595000    189.439080      5.775000   4.0000  12.0107
    780    2 C     6      7.154329    189.448040      5.775000   4.0000  12.0107
    781    2 C     6     12.035671    189.448040      5.775000   4.0000  12.0107
    782    1 H     1      4.998191    189.662743      5.775000   1.0000   1.0079
    783    1 H     1     14.191809    189.662743      5.775000   1.0000   1.0079
    784    2 C     6      8.371477    190.152265      5.775000   4.0000  12.0107
    785    2 C     6     10.818523    190.152265      5.775000   4.0000  12.0107
    786    2 C     6      5.959983    190.182510      5.775000   4.0000  12.0107
    787    2 C     6     13.230017    190.182510      5.775000   4.0000  12.0107
    788    2 C     6     13.230017    191.540864      5.775000   4.0000  12.0107
    789    2 C     6      5.959983    191.540864      5.775000   4.0000  12.0107
    790    2 C     6     10.818523    191.571110      5.775000   4.0000  12.0107
    791    2 C     6      8.371477    191.571110      5.775000   4.0000  12.0107
    792    1 H     1     14.191809    192.060632      5.775000   1.0000   1.0079
    793    1 H     1      4.998191    192.060632      5.775000   1.0000   1.0079
    794    2 C     6      7.154329    192.275335      5.775000   4.0000  12.0107
    795    2 C     6     12.035671    192.275335      5.775000   4.0000  12.0107
    796    2 C     6      9.595000    192.284295      5.775000   4.0000  12.0107
    797    2 C     6      9.595000    193.703140      5.775000   4.0000  12.0107
    798    2 C     6      7.154329    193.712100      5.775000   4.0000  12.0107
    799    2 C     6     12.035671    193.712100      5.775000   4.0000  12.0107
    800    1 H     1      4.998191    193.926802      5.775000   1.0000   1.0079
    801    1 H     1     14.191809    193.926802      5.775000   1.0000   1.0079
    802    2 C     6      8.371477    194.416324      5.775000   4.0000  12.0107
    803    2 C     6     10.818523    194.416324      5.775000   4.0000  12.0107
    804    2 C     6      5.959983    194.446570      5.775000   4.0000  12.0107
    805    2 C     6     13.230017    194.446570      5.775000   4.0000  12.0107
    806    2 C     6     13.230017    195.804924      5.775000   4.0000  12.0107
    807    2 C     6      5.959983    195.804924      5.775000   4.0000  12.0107
    808    2 C     6     10.818523    195.835170      5.775000   4.0000  12.0107
    809    2 C     6      8.371477    195.835170      5.775000   4.0000  12.0107
    810    1 H     1      4.998191    196.324691      5.775000   1.0000   1.0079
    811    1 H     1     14.191809    196.324691      5.775000   1.0000   1.0079
    812    2 C     6     12.035671    196.539394      5.775000   4.0000  12.0107
    813    2 C     6      7.154329    196.539394      5.775000   4.0000  12.0107
    814    2 C     6      9.595000    196.548354      5.775000   4.0000  12.0107
    815    2 C     6      9.595000    197.967199      5.775000   4.0000  12.0107
    816    2 C     6     12.035671    197.976159      5.775000   4.0000  12.0107
    817    2 C     6      7.154329    197.976159      5.775000   4.0000  12.0107
    818    1 H     1     14.191809    198.190862      5.775000   1.0000   1.0079
    819    1 H     1      4.998191    198.190862      5.775000   1.0000   1.0079
    820    2 C     6     10.818523    198.680384      5.775000   4.0000  12.0107
    821    2 C     6      8.371477    198.680384      5.775000   4.0000  12.0107
    822    2 C     6      5.959983    198.710630      5.775000   4.0000  12.0107
    823    2 C     6     13.230017    198.710630      5.775000   4.0000  12.0107
    824    2 C     6     13.230017    200.068984      5.775000   4.0000  12.0107
    825    2 C     6      5.959983    200.068984      5.775000   4.0000  12.0107
    826    2 C     6      8.371477    200.099229      5.775000   4.0000  12.0107
    827    2 C     6     10.818523    200.099229      5.775000   4.0000  12.0107
    828    1 H     1      4.998191    200.588751      5.775000   1.0000   1.0079
    829    1 H     1     14.191809    200.588751      5.775000   1.0000   1.0079
    830    2 C     6      7.154329    200.803454      5.775000   4.0000  12.0107
    831    2 C     6     12.035671    200.803454      5.775000   4.0000  12.0107
    832    2 C     6      9.595000    200.812414      5.775000   4.0000  12.0107
    833    2 C     6      9.595000    202.231259      5.775000   4.0000  12.0107
    834    2 C     6      7.154329    202.240219      5.775000   4.0000  12.0107
    835    2 C     6     12.035671    202.240219      5.775000   4.0000  12.0107
    836    1 H     1     14.191809    202.454922      5.775000   1.0000   1.0079
    837    1 H     1      4.998191    202.454922      5.775000   1.0000   1.0079
    838    2 C     6      8.371477    202.944444      5.775000   4.0000  12.0107
    839    2 C     6     10.818523    202.944444      5.775000   4.0000  12.0107
    840    2 C     6     13.230017    202.974689      5.775000   4.0000  12.0107
    841    2 C     6      5.959983    202.974689      5.775000   4.0000  12.0107
    842    2 C     6      5.959983    204.333044      5.775000   4.0000  12.0107
    843    2 C     6     13.230017    204.333044      5.775000   4.0000  12.0107
    844    2 C     6     10.818523    204.363289      5.775000   4.0000  12.0107
    845    2 C     6      8.371477    204.363289      5.775000   4.0000  12.0107
    846    1 H     1     14.191809    204.852811      5.775000   1.0000   1.0079
    847    1 H     1      4.998191    204.852811      5.775000   1.0000   1.0079
    848    2 C     6     12.035671    205.067514      5.775000   4.0000  12.0107
    849    2 C     6      7.154329    205.067514      5.775000   4.0000  12.0107
    850    2 C     6      9.595000    205.076474      5.775000   4.0000  12.0107
    851    2 C     6      9.595000    206.495319      5.775000   4.0000  12.0107
    852    2 C     6     12.035671    206.504279      5.775000   4.0000  12.0107
    853    2 C     6      7.154329    206.504279      5.775000   4.0000  12.0107
    854    1 H     1     14.191809    206.718982      5.775000   1.0000   1.0079
    855    1 H     1      4.998191    206.718982      5.775000   1.0000   1.0079
    856    2 C     6      8.371477    207.208504      5.775000   4.0000  12.0107
    857    2 C     6     10.818523    207.208504      5.775000   4.0000  12.0107
    858    2 C     6     13.230017    207.238749      5.775000   4.0000  12.0107
    859    2 C     6      5.959983    207.238749      5.775000   4.0000  12.0107
    860    2 C     6     13.230017    208.597103      5.775000   4.0000  12.0107
    861    2 C     6      5.959983    208.597103      5.775000   4.0000  12.0107
    862    2 C     6      8.371477    208.627349      5.775000   4.0000  12.0107
    863    2 C     6     10.818523    208.627349      5.775000   4.0000  12.0107
    864    1 H     1     14.191809    209.116871      5.775000   1.0000   1.0079
    865    1 H     1      4.998191    209.116871      5.775000   1.0000   1.0079
    866    2 C     6     12.035671    209.331574      5.775000   4.0000  12.0107
    867    2 C     6      7.154329    209.331574      5.775000   4.0000  12.0107
    868    2 C     6      9.595000    209.340534      5.775000   4.0000  12.0107
    869    2 C     6      9.595000    210.759379      5.775000   4.0000  12.0107
    870    2 C     6      7.154329    210.768339      5.775000   4.0000  12.0107
    871    2 C     6     12.035671    210.768339      5.775000   4.0000  12.0107
    872    1 H     1     14.191809    210.983041      5.775000   1.0000   1.0079
    873    1 H     1      4.998191    210.983041      5.775000   1.0000   1.0079
    874    2 C     6      8.371477    211.472563      5.775000   4.0000  12.0107
    875    2 C     6     10.818523    211.472563      5.775000   4.0000  12.0107
    876    2 C     6      5.959983    211.502809      5.775000   4.0000  12.0107
    877    2 C     6     13.230017    211.502809      5.775000   4.0000  12.0107
    878    2 C     6     13.230017    212.861163      5.775000   4.0000  12.0107
    879    2 C     6      5.959983    212.861163      5.775000   4.0000  12.0107
    880    2 C     6      8.371477    212.891409      5.775000   4.0000  12.0107
    881    2 C     6     10.818523    212.891409      5.775000   4.0000  12.0107
    882    1 H     1     14.191809    213.380930      5.775000   1.0000   1.0079
    883    1 H     1      4.998191    213.380930      5.775000   1.0000   1.0079
    884    2 C     6      7.154329    213.595633      5.775000   4.0000  12.0107
    885    2 C     6     12.035671    213.595633      5.775000   4.0000  12.0107
    886    2 C     6      9.595000    213.604593      5.775000   4.0000  12.0107
    887    2 C     6      9.595000    215.023438      5.775000   4.0000  12.0107
    888    2 C     6     12.035671    215.032398      5.775000   4.0000  12.0107
    889    2 C     6      7.154329    215.032398      5.775000   4.0000  12.0107
    890    1 H     1     14.191809    215.247101      5.775000   1.0000   1.0079
    891    1 H     1      4.998191    215.247101      5.775000   1.0000   1.0079
    892    2 C     6     10.818523    215.736623      5.775000   4.0000  12.0107
    893    2 C     6      8.371477    215.736623      5.775000   4.0000  12.0107
    894    2 C     6     13.230017    215.766869      5.775000   4.0000  12.0107
    895    2 C     6      5.959983    215.766869      5.775000   4.0000  12.0107
    896    2 C     6      5.959983    217.125223      5.775000   4.0000  12.0107
    897    2 C     6     13.230017    217.125223      5.775000   4.0000  12.0107
    898    2 C     6      8.371477    217.155468      5.775000   4.0000  12.0107
    899    2 C     6     10.818523    217.155468      5.775000   4.0000  12.0107
    900    1 H     1      4.998191    217.644990      5.775000   1.0000   1.0079
    901    1 H     1     14.191809    217.644990      5.775000   1.0000   1.0079
    902    2 C     6     12.035671    217.859693      5.775000   4.0000  12.0107
    903    2 C     6      7.154329    217.859693      5.775000   4.0000  12.0107
    904    2 C     6      9.595000    217.868653      5.775000   4.0000  12.0107
    905    2 C     6      9.595000    219.287498      5.775000   4.0000  12.0107
    906    2 C     6      7.154329    219.296458      5.775000   4.0000  12.0107
    907    2 C     6     12.035671    219.296458      5.775000   4.0000  12.0107
    908    1 H     1      4.998191    219.511161      5.775000   1.0000   1.0079
    909    1 H     1     14.191809    219.511161      5.775000   1.0000   1.0079
    910    2 C     6      8.371477    220.000683      5.775000   4.0000  12.0107
    911    2 C     6     10.818523    220.000683      5.775000   4.0000  12.0107
    912    2 C     6     13.230017    220.030928      5.775000   4.0000  12.0107
    913    2 C     6      5.959983    220.030928      5.775000   4.0000  12.0107
    914    2 C     6     13.230017    221.389283      5.775000   4.0000  12.0107
    915    2 C     6      5.959983    221.389283      5.775000   4.0000  12.0107
    916    2 C     6     10.818523    221.419528      5.775000   4.0000  12.0107
    917    2 C     6      8.371477    221.419528      5.775000   4.0000  12.0107
    918    1 H     1     14.191809    221.909050      5.775000   1.0000   1.0079
    919    1 H     1      4.998191    221.909050      5.775000   1.0000   1.0079
    920    2 C     6     12.035671    222.123753      5.775000   4.0000  12.0107
    921    2 C     6      7.154329    222.123753      5.775000   4.0000  12.0107
    922    2 C     6      9.595000    222.132713      5.775000   4.0000  12.0107
    923    2 C     6      9.595000    223.551558      5.775000   4.0000  12.0107
    924    2 C     6      7.154329    223.560518      5.775000   4.0000  12.0107
    925    2 C     6     12.035671    223.560518      5.775000   4.0000  12.0107
    926    1 H     1     14.191809    223.775221      5.775000   1.0000   1.0079
    927    1 H     1      4.998191    223.775221      5.775000   1.0000   1.0079
    928    2 C     6     10.818523    224.264743      5.775000   4.0000  12.0107
    929    2 C     6      8.371477    224.264743      5.775000   4.0000  12.0107
    930    2 C     6      5.959983    224.294988      5.775000   4.0000  12.0107
    931    2 C     6     13.230017    224.294988      5.775000   4.0000  12.0107
    932    2 C     6      5.959983    225.653342      5.775000   4.0000  12.0107
    933    2 C     6     13.230017    225.653342      5.775000   4.0000  12.0107
    934    2 C     6     10.818523    225.683588      5.775000   4.0000  12.0107
    935    2 C     6      8.371477    225.683588      5.775000   4.0000  12.0107
    936    1 H     1      4.998191    226.173110      5.775000   1.0000   1.0079
    937    1 H     1     14.191809    226.173110      5.775000   1.0000   1.0079
    938    2 C     6     12.035671    226.387813      5.775000   4.0000  12.0107
    939    2 C     6      7.154329    226.387813      5.775000   4.0000  12.0107
    940    2 C     6      9.595000    226.396773      5.775000   4.0000  12.0107
    941    2 C     6      9.595000    227.815618      5.775000   4.0000  12.0107
    942    2 C     6     12.035671    227.824578      5.775000   4.0000  12.0107
    943    2 C     6      7.154329    227.824578      5.775000   4.0000  12.0107
    944    1 H     1      4.998191    228.039280      5.775000   1.0000   1.0079
    945    1 H     1     14.191809    228.039280      5.775000   1.0000   1.0079
    946    2 C     6     10.818523    228.528802      5.775000   4.0000  12.0107
    947    2 C     6      8.371477    228.528802      5.775000   4.0000  12.0107
    948    2 C     6      5.959983    228.559048      5.775000   4.0000  12.0107
    949    2 C     6     13.230017    228.559048      5.775000   4.0000  12.0107
    950    2 C     6      5.959983    229.917402      5.775000   4.0000  12.0107
    951    2 C     6     13.230017    229.917402      5.775000   4.0000  12.0107
    952    2 C     6      8.371477    229.947648      5.775000   4.0000  12.0107
    953    2 C     6     10.818523    229.947648      5.775000   4.0000  12.0107
    954    1 H     1      4.998191    230.437169      5.775000   1.0000   1.0079
    955    1 H     1     14.191809    230.437169      5.775000   1.0000   1.0079
    956    2 C     6      7.154329    230.651872      5.775000   4.0000  12.0107
    957    2 C     6     12.035671    230.651872      5.775000   4.0000  12.0107
    958    2 C     6      9.595000    230.660832      5.775000   4.0000  12.0107
    959    2 C     6      9.595000    232.079677      5.775000   4.0000  12.0107
    960    2 C     6     12.035671    232.088637      5.775000   4.0000  12.0107
    961    2 C     6      7.154329    232.088637      5.775000   4.0000  12.0107
    962    1 H     1      4.998191    232.303340      5.775000   1.0000   1.0079
    963    1 H     1     14.191809    232.303340      5.775000   1.0000   1.0079
    964    2 C     6      8.371477    232.792862      5.775000   4.0000  12.0107
    965    2 C     6     10.818523    232.792862      5.775000   4.0000  12.0107
    966    2 C     6     13.230017    232.823108      5.775000   4.0000  12.0107
    967    2 C     6      5.959983    232.823108      5.775000   4.0000  12.0107
    968    2 C     6      5.959983    234.181462      5.775000   4.0000  12.0107
    969    2 C     6     13.230017    234.181462      5.775000   4.0000  12.0107
    970    2 C     6      8.371477    234.211707      5.775000   4.0000  12.0107
    971    2 C     6     10.818523    234.211707      5.775000   4.0000  12.0107
    972    1 H     1      4.998191    234.701229      5.775000   1.0000   1.0079
    973    1 H     1     14.191809    234.701229      5.775000   1.0000   1.0079
    974    2 C     6     12.035671    234.915932      5.775000   4.0000  12.0107
    975    2 C     6      7.154329    234.915932      5.775000   4.0000  12.0107
    976    2 C     6      9.595000    234.924892      5.775000   4.0000  12.0107
    977    2 C     6      9.595000    236.343737      5.775000   4.0000  12.0107
    978    2 C     6      7.154329    236.352697      5.775000   4.0000  12.0107
    979    2 C     6     12.035671    236.352697      5.775000   4.0000  12.0107
    980    1 H     1     14.191809    236.567400      5.775000   1.0000   1.0079
    981    1 H     1      4.998191    236.567400      5.775000   1.0000   1.0079
    982    2 C     6     10.818523    237.056922      5.775000   4.0000  12.0107
    983    2 C     6      8.371477    237.056922      5.775000   4.0000  12.0107
    984    2 C     6     13.230017    237.087167      5.775000   4.0000  12.0107
    985    2 C     6      5.959983    237.087167      5.775000   4.0000  12.0107
    986    2 C     6      5.959983    238.445522      5.775000   4.0000  12.0107
    987    2 C     6     13.230017    238.445522      5.775000   4.0000  12.0107
    988    2 C     6     10.818523    238.475767      5.775000   4.0000  12.0107
    989    2 C     6      8.371477    238.475767      5.775000   4.0000  12.0107
    990    1 H     1      4.998191    238.965289      5.775000   1.0000   1.0079
    991    1 H     1     14.191809    238.965289      5.775000   1.0000   1.0079
    992    2 C     6      7.154329    239.179992      5.775000   4.0000  12.0107
    993    2 C     6     12.035671    239.179992      5.775000   4.0000  12.0107
    994    2 C     6      9.595000    239.188952      5.775000   4.0000  12.0107
    995    2 C     6      9.595000    240.607797      5.775000   4.0000  12.0107
    996    2 C     6      7.154329    240.616757      5.775000   4.0000  12.0107
    997    2 C     6     12.035671    240.616757      5.775000   4.0000  12.0107
    998    1 H     1      4.998191    240.831460      5.775000   1.0000   1.0079
    999    1 H     1     14.191809    240.831460      5.775000   1.0000   1.0079
   1000    2 C     6      8.371477    241.320982      5.775000   4.0000  12.0107
   1001    2 C     6     10.818523    241.320982      5.775000   4.0000  12.0107
   1002    2 C     6     13.230017    241.351227      5.775000   4.0000  12.0107
   1003    2 C     6      5.959983    241.351227      5.775000   4.0000  12.0107
   1004    2 C     6      5.959983    242.709581      5.775000   4.0000  12.0107
   1005    2 C     6     13.230017    242.709581      5.775000   4.0000  12.0107
   1006    2 C     6     10.818523    242.739827      5.775000   4.0000  12.0107
   1007    2 C     6      8.371477    242.739827      5.775000   4.0000  12.0107
   1008    1 H     1     14.191809    243.229349      5.775000   1.0000   1.0079
   1009    1 H     1      4.998191    243.229349      5.775000   1.0000   1.0079
   1010    2 C     6      7.154329    243.444052      5.775000   4.0000  12.0107
   1011    2 C     6     12.035671    243.444052      5.775000   4.0000  12.0107
   1012    2 C     6      9.595000    243.453012      5.775000   4.0000  12.0107
   1013    2 C     6      9.595000    244.871857      5.775000   4.0000  12.0107
   1014    2 C     6      7.154329    244.880817      5.775000   4.0000  12.0107
   1015    2 C     6     12.035671    244.880817      5.775000   4.0000  12.0107
   1016    1 H     1      4.998191    245.095519      5.775000   1.0000   1.0079
   1017    1 H     1     14.191809    245.095519      5.775000   1.0000   1.0079
   1018    2 C     6     10.818523    245.585041      5.775000   4.0000  12.0107
   1019    2 C     6      8.371477    245.585041      5.775000   4.0000  12.0107
   1020    2 C     6      5.959983    245.615287      5.775000   4.0000  12.0107
   1021    2 C     6     13.230017    245.615287      5.775000   4.0000  12.0107
   1022    2 C     6      5.959983    246.973641      5.775000   4.0000  12.0107
   1023    2 C     6     13.230017    246.973641      5.775000   4.0000  12.0107
   1024    2 C     6     10.818523    247.003887      5.775000   4.0000  12.0107
   1025    2 C     6      8.371477    247.003887      5.775000   4.0000  12.0107
   1026    1 H     1     14.191809    247.493408      5.775000   1.0000   1.0079
   1027    1 H     1      4.998191    247.493408      5.775000   1.0000   1.0079
   1028    2 C     6     12.035671    247.708111      5.775000   4.0000  12.0107
   1029    2 C     6      7.154329    247.708111      5.775000   4.0000  12.0107
   1030    2 C     6      9.595000    247.717071      5.775000   4.0000  12.0107
   1031    2 C     6      9.595000    249.135916      5.775000   4.0000  12.0107
   1032    2 C     6      7.154329    249.144876      5.775000   4.0000  12.0107
   1033    2 C     6     12.035671    249.144876      5.775000   4.0000  12.0107
   1034    1 H     1      4.998191    249.359579      5.775000   1.0000   1.0079
   1035    1 H     1     14.191809    249.359579      5.775000   1.0000   1.0079
   1036    2 C     6     10.818523    249.849101      5.775000   4.0000  12.0107
   1037    2 C     6      8.371477    249.849101      5.775000   4.0000  12.0107
   1038    2 C     6      5.959983    249.879347      5.775000   4.0000  12.0107
   1039    2 C     6     13.230017    249.879347      5.775000   4.0000  12.0107
   1040    2 C     6     13.230017    251.237701      5.775000   4.0000  12.0107
   1041    2 C     6      5.959983    251.237701      5.775000   4.0000  12.0107
   1042    2 C     6      8.371477    251.267946      5.775000   4.0000  12.0107
   1043    2 C     6     10.818523    251.267946      5.775000   4.0000  12.0107
   1044    1 H     1      4.998191    251.757468      5.775000   1.0000   1.0079
   1045    1 H     1     14.191809    251.757468      5.775000   1.0000   1.0079
   1046    2 C     6     12.035671    251.972171      5.775000   4.0000  12.0107
   1047    2 C     6      7.154329    251.972171      5.775000   4.0000  12.0107
   1048    2 C     6      9.595000    251.981131      5.775000   4.0000  12.0107
   1049    2 C     6      9.595000    253.399976      5.775000   4.0000  12.0107
   1050    2 C     6     12.035671    253.408936      5.775000   4.0000  12.0107
   1051    2 C     6      7.154329    253.408936      5.775000   4.0000  12.0107
   1052    1 H     1      4.998191    253.623639      5.775000   1.0000   1.0079
   1053    1 H     1     14.191809    253.623639      5.775000   1.0000   1.0079
   1054    2 C     6      8.371477    254.113161      5.775000   4.0000  12.0107
   1055    2 C     6     10.818523    254.113161      5.775000   4.0000  12.0107
   1056    2 C     6     13.230017    254.143406      5.775000   4.0000  12.0107
   1057    2 C     6      5.959983    254.143406      5.775000   4.0000  12.0107
   1058    2 C     6     13.230017    255.501761      5.775000   4.0000  12.0107
   1059    2 C     6      5.959983    255.501761      5.775000   4.0000  12.0107
   1060    2 C     6     10.818523    255.532006      5.775000   4.0000  12.0107
   1061    2 C     6      8.371477    255.532006      5.775000   4.0000  12.0107
   1062    1 H     1      4.998191    256.021528      5.775000   1.0000   1.0079
   1063    1 H     1     14.191809    256.021528      5.775000   1.0000   1.0079
   1064    2 C     6     12.035671    256.236231      5.775000   4.0000  12.0107
   1065    2 C     6      7.154329    256.236231      5.775000   4.0000  12.0107
   1066    2 C     6      9.595000    256.245191      5.775000   4.0000  12.0107
   1067    2 C     6      9.595000    257.664036      5.775000   4.0000  12.0107
   1068    2 C     6      7.154329    257.672996      5.775000   4.0000  12.0107
   1069    2 C     6     12.035671    257.672996      5.775000   4.0000  12.0107
   1070    1 H     1     14.191809    257.887699      5.775000   1.0000   1.0079
   1071    1 H     1      4.998191    257.887699      5.775000   1.0000   1.0079
   1072    2 C     6      8.371477    258.377221      5.775000   4.0000  12.0107
   1073    2 C     6     10.818523    258.377221      5.775000   4.0000  12.0107
   1074    2 C     6     13.230017    258.407466      5.775000   4.0000  12.0107
   1075    2 C     6      5.959983    258.407466      5.775000   4.0000  12.0107
   1076    2 C     6     13.230017    259.765820      5.775000   4.0000  12.0107
   1077    2 C     6      5.959983    259.765820      5.775000   4.0000  12.0107
   1078    2 C     6      8.371477    259.796066      5.775000   4.0000  12.0107
   1079    2 C     6     10.818523    259.796066      5.775000   4.0000  12.0107
   1080    1 H     1     14.191809    260.285588      5.775000   1.0000   1.0079
   1081    1 H     1      4.998191    260.285588      5.775000   1.0000   1.0079
   1082    2 C     6      7.154329    260.500291      5.775000   4.0000  12.0107
   1083    2 C     6     12.035671    260.500291      5.775000   4.0000  12.0107
   1084    2 C     6      9.595000    260.509251      5.775000   4.0000  12.0107
   1085    2 C     6      9.595000    261.928096      5.775000   4.0000  12.0107
   1086    2 C     6      7.154329    261.937056      5.775000   4.0000  12.0107
   1087    2 C     6     12.035671    261.937056      5.775000   4.0000  12.0107
   1088    1 H     1      4.998191    262.151758      5.775000   1.0000   1.0079
   1089    1 H     1     14.191809    262.151758      5.775000   1.0000   1.0079
   1090    2 C     6      8.371477    262.641280      5.775000   4.0000  12.0107
   1091    2 C     6     10.818523    262.641280      5.775000   4.0000  12.0107
   1092    2 C     6     13.230017    262.671526      5.775000   4.0000  12.0107
   1093    2 C     6      5.959983    262.671526      5.775000   4.0000  12.0107
   1094    2 C     6      5.959983    264.029880      5.775000   4.0000  12.0107
   1095    2 C     6     13.230017    264.029880      5.775000   4.0000  12.0107
   1096    2 C     6     10.818523    264.060126      5.775000   4.0000  12.0107
   1097    2 C     6      8.371477    264.060126      5.775000   4.0000  12.0107
   1098    1 H     1     14.191809    264.549648      5.775000   1.0000   1.0079
   1099    1 H     1      4.998191    264.549648      5.775000   1.0000   1.0079
   1100    2 C     6     12.035671    264.764350      5.775000   4.0000  12.0107
   1101    2 C     6      7.154329    264.764350      5.775000   4.0000  12.0107
   1102    2 C     6      9.595000    264.773310      5.775000   4.0000  12.0107
   1103    2 C     6      9.595000    266.192155      5.775000   4.0000  12.0107
   1104    2 C     6     12.035671    266.201115      5.775000   4.0000  12.0107
   1105    2 C     6      7.154329    266.201115      5.775000   4.0000  12.0107
   1106    1 H     1      4.998191    266.415818      5.775000   1.0000   1.0079
   1107    1 H     1     14.191809    266.415818      5.775000   1.0000   1.0079
   1108    2 C     6     10.818523    266.905340      5.775000   4.0000  12.0107
   1109    2 C     6      8.371477    266.905340      5.775000   4.0000  12.0107
   1110    2 C     6     13.230017    266.935586      5.775000   4.0000  12.0107
   1111    2 C     6      5.959983    266.935586      5.775000   4.0000  12.0107
   1112    2 C     6     13.230017    268.293940      5.775000   4.0000  12.0107
   1113    2 C     6      5.959983    268.293940      5.775000   4.0000  12.0107
   1114    2 C     6      8.371477    268.324185      5.775000   4.0000  12.0107
   1115    2 C     6     10.818523    268.324185      5.775000   4.0000  12.0107
   1116    1 H     1      4.998191    268.813707      5.775000   1.0000   1.0079
   1117    1 H     1     14.191809    268.813707      5.775000   1.0000   1.0079
   1118    2 C     6      7.154329    269.028410      5.775000   4.0000  12.0107
   1119    2 C     6     12.035671    269.028410      5.775000   4.0000  12.0107
   1120    2 C     6      9.595000    269.037370      5.775000   4.0000  12.0107
   1121    2 C     6      9.595000    270.456215      5.775000   4.0000  12.0107
   1122    2 C     6      7.154329    270.465175      5.775000   4.0000  12.0107
   1123    2 C     6     12.035671    270.465175      5.775000   4.0000  12.0107
   1124    1 H     1      4.998191    270.679878      5.775000   1.0000   1.0079
   1125    1 H     1     14.191809    270.679878      5.775000   1.0000   1.0079
   1126    2 C     6      8.371477    271.169400      5.775000   4.0000  12.0107
   1127    2 C     6     10.818523    271.169400      5.775000   4.0000  12.0107
   1128    2 C     6      5.959983    271.199645      5.775000   4.0000  12.0107
   1129    2 C     6     13.230017    271.199645      5.775000   4.0000  12.0107
   1130    2 C     6      5.959983    272.558000      5.775000   4.0000  12.0107
   1131    2 C     6     13.230017    272.558000      5.775000   4.0000  12.0107
   1132    2 C     6     10.818523    272.588245      5.775000   4.0000  12.0107
   1133    2 C     6      8.371477    272.588245      5.775000   4.0000  12.0107
   1134    1 H     1      4.998191    273.077767      5.775000   1.0000   1.0079
   1135    1 H     1     14.191809    273.077767      5.775000   1.0000   1.0079
   1136    2 C     6     12.035671    273.292470      5.775000   4.0000  12.0107
   1137    2 C     6      7.154329    273.292470      5.775000   4.0000  12.0107
   1138    2 C     6      9.595000    273.301430      5.775000   4.0000  12.0107
   1139    2 C     6      9.595000    274.720275      5.775000   4.0000  12.0107
   1140    2 C     6      7.154329    274.729235      5.775000   4.0000  12.0107
   1141    2 C     6     12.035671    274.729235      5.775000   4.0000  12.0107
   1142    1 H     1      4.998191    274.943938      5.775000   1.0000   1.0079
   1143    1 H     1     14.191809    274.943938      5.775000   1.0000   1.0079
   1144    2 C     6     10.818523    275.433460      5.775000   4.0000  12.0107
   1145    2 C     6      8.371477    275.433460      5.775000   4.0000  12.0107
   1146    2 C     6     13.230017    275.463705      5.775000   4.0000  12.0107
   1147    2 C     6      5.959983    275.463705      5.775000   4.0000  12.0107
   1148    2 C     6      5.959983    276.822059      5.775000   4.0000  12.0107
   1149    2 C     6     13.230017    276.822059      5.775000   4.0000  12.0107
   1150    2 C     6      8.371477    276.852305      5.775000   4.0000  12.0107
   1151    2 C     6     10.818523    276.852305      5.775000   4.0000  12.0107
   1152    1 H     1     14.191809    277.341827      5.775000   1.0000   1.0079
   1153    1 H     1      4.998191    277.341827      5.775000   1.0000   1.0079
   1154    2 C     6     12.035671    277.556530      5.775000   4.0000  12.0107
   1155    2 C     6      7.154329    277.556530      5.775000   4.0000  12.0107
   1156    2 C     6      9.595000    277.565490      5.775000   4.0000  12.0107
   1157    1 H     1      9.595000    278.338534      5.001956   1.0000   1.0079
   1158    1 H     1      9.595000    278.338534      6.548044   1.0000   1.0079
   1159    1 H     1      7.154329    278.649780      5.775000   1.0000   1.0079
   1160    1 H     1     12.035671    278.649780      5.775000   1.0000   1.0079



 SCF PARAMETERS         Density guess:                                   RESTART
                        --------------------------------------------------------
                        max_scf:                                             300
                        max_scf_history:                                       0
                        max_diis:                                              4
                        --------------------------------------------------------
                        eps_scf:                                        1.00E-07
                        eps_scf_history:                                0.00E+00
                        eps_diis:                                       1.00E-01
                        eps_eigval:                                     1.00E-05
                        --------------------------------------------------------
                        level_shift [a.u.]:                             0.000000
                        SCF update method:                                MIXING
                        added MOs                                       100    0
                        --------------------------------------------------------
                        Mixing method:                            BROYDEN_MIXING
                                                charge density mixing in g-space
                        --------------------------------------------------------
                        No outer SCF

 PW_GRID| Information for grid number                                          2
 PW_GRID| Grid distributed over                                    64 processors
 PW_GRID| Real space group dimensions                                    64    1
 PW_GRID| the grid is blocked:                                                NO
 PW_GRID| Cutoff [a.u.]                                                    300.0
 PW_GRID| spherical cutoff:                                                   NO
 PW_GRID|   Bounds   1           -144     143                Points:         288
 PW_GRID|   Bounds   2          -2100    2099                Points:        4200
 PW_GRID|   Bounds   3            -90      89                Points:         180
 PW_GRID| Volume element (a.u.^3)  0.1949E-02     Volume (a.u.^3)    424264.1675
 PW_GRID| Grid span                                                    FULLSPACE
 PW_GRID|   Distribution                         Average         Max         Min
 PW_GRID|   G-Vectors                          3402000.0     3402144     3401856
 PW_GRID|   G-Rays                               11812.5       11813       11812
 PW_GRID|   Real Space Points                  3402000.0     3780000     3024000

 PW_GRID| Information for grid number                                          3
 PW_GRID| Number of the reference grid                                         2
 PW_GRID| Grid distributed over                                    64 processors
 PW_GRID| Real space group dimensions                                    64    1
 PW_GRID| the grid is blocked:                                                NO
 PW_GRID| Cutoff [a.u.]                                                    100.0
 PW_GRID| spherical cutoff:                                                   NO
 PW_GRID|   Bounds   1            -90      89                Points:         180
 PW_GRID|   Bounds   2          -1232    1231                Points:        2464
 PW_GRID|   Bounds   3            -50      49                Points:         100
 PW_GRID| Volume element (a.u.^3)  0.9566E-02     Volume (a.u.^3)    424264.1675
 PW_GRID| Grid span                                                    FULLSPACE
 PW_GRID|   Distribution                         Average         Max         Min
 PW_GRID|   G-Vectors                           693000.0      694980      690120
 PW_GRID|   G-Rays                                3850.0        3861        3834
 PW_GRID|   Real Space Points                   693000.0      739200      492800

 PW_GRID| Information for grid number                                          4
 PW_GRID| Number of the reference grid                                         2
 PW_GRID| Grid distributed over                                    64 processors
 PW_GRID| Real space group dimensions                                    64    1
 PW_GRID| the grid is blocked:                                                NO
 PW_GRID| Cutoff [a.u.]                                                     33.3
 PW_GRID| spherical cutoff:                                                   NO
 PW_GRID|   Bounds   1            -48      47                Points:          96
 PW_GRID|   Bounds   2           -700     699                Points:        1400
 PW_GRID|   Bounds   3            -30      29                Points:          60
 PW_GRID| Volume element (a.u.^3)  0.5261E-01     Volume (a.u.^3)    424264.1675
 PW_GRID| Grid span                                                    FULLSPACE
 PW_GRID|   Distribution                         Average         Max         Min
 PW_GRID|   G-Vectors                           126000.0      127200      124992
 PW_GRID|   G-Rays                                1312.5        1325        1302
 PW_GRID|   Real Space Points                   126000.0      168000       84000

 PW_GRID| Information for grid number                                          5
 PW_GRID| Number of the reference grid                                         2
 PW_GRID| Grid distributed over                                    64 processors
 PW_GRID| Real space group dimensions                                     8    8
 PW_GRID| the grid is blocked:                                                NO
 PW_GRID| Cutoff [a.u.]                                                     11.1
 PW_GRID| spherical cutoff:                                                   NO
 PW_GRID|   Bounds   1            -30      29                Points:          60
 PW_GRID|   Bounds   2           -405     404                Points:         810
 PW_GRID|   Bounds   3            -18      17                Points:          36
 PW_GRID| Volume element (a.u.^3)  0.2425         Volume (a.u.^3)    424264.1675
 PW_GRID| Grid span                                                    FULLSPACE
 PW_GRID|   Distribution                         Average         Max         Min
 PW_GRID|   G-Vectors                            27337.5       28020       26820
 PW_GRID|   G-Rays                                 455.6         467         447
 PW_GRID|   Real Space Points                    27337.5       29376       25452

 POISSON| Solver                                             MULTIPOLE (Bloechl)
 POISSON| Periodicity                                                       NONE

 RS_GRID| Information for grid number                                          2
 RS_GRID|   Bounds   1           -144     143                Points:         288
 RS_GRID|   Bounds   2          -2100    2099                Points:        4200
 RS_GRID|   Bounds   3            -90      89                Points:         180
 RS_GRID| Real space distribution over                                 64 groups
 RS_GRID| Real space distribution along direction                              2
 RS_GRID| Border size                                                         30
 RS_GRID|   Distribution                         Average         Max         Min
 RS_GRID|   Planes                                 125.6         126         125

 RS_GRID| Information for grid number                                          3
 RS_GRID|   Bounds   1            -90      89                Points:         180
 RS_GRID|   Bounds   2          -1232    1231                Points:        2464
 RS_GRID|   Bounds   3            -50      49                Points:         100
 RS_GRID| Real space distribution over                                 64 groups
 RS_GRID| Real space distribution along direction                              2
 RS_GRID| Border size                                                         33
 RS_GRID|   Distribution                         Average         Max         Min
 RS_GRID|   Planes                                 104.5         105         104

 RS_GRID| Information for grid number                                          4
 RS_GRID|   Bounds   1            -48      47                Points:          96
 RS_GRID|   Bounds   2           -700     699                Points:        1400
 RS_GRID|   Bounds   3            -30      29                Points:          60
 RS_GRID| Real space fully replicated
 RS_GRID| Group size                                                           1

 RS_GRID| Information for grid number                                          5
 RS_GRID|   Bounds   1            -30      29                Points:          60
 RS_GRID|   Bounds   2           -405     404                Points:         810
 RS_GRID|   Bounds   3            -18      17                Points:          36
 RS_GRID| Real space fully replicated
 RS_GRID| Group size                                                           1

 *** WARNING in emd/rt_bse_linearized.F:131 :: Linearized RT-BSE is under ***
 *** active development. Make sure you understand the method and validate ***
 *** results before using it for production calculations.                 ***


 Extrapolation method: initial_guess

 Number of electrons:                                                       3848
 Number of occupied orbitals:                                               1924
 Number of molecular orbitals:                                              2024

 Number of orbital functions:                                              13232
 Number of independent orbital functions:                                  13232


 SCF WAVEFUNCTION OPTIMIZATION

  Step     Update method      Time    Convergence         Total energy    Change
  ------------------------------------------------------------------------------
  Decoupling Energy:                                               0.0002357789
     1 NoMix/Diag. 0.40E+00   14.1     0.00000013     -5254.4281712561 -5.25E+03
  Decoupling Energy:                                               0.0002357830
     2 Broy./Diag. 0.40E+00   14.3     0.00000007     -5254.4281560757  1.52E-05

  *** SCF run converged in     2 steps ***


  Electronic density on regular grids:      -3848.0000000000       -0.0000000000
  Core density on regular grids:             3848.0000000000       -0.0000000000
  Total charge density on r-space grids:       -0.0000000000
  Total charge density g-space grids:          -0.0000000000

  Overlap energy of the core charge distribution:               0.00030208740354
  Self energy of the core charge distribution:             -12320.53222752315014
  Core Hamiltonian energy:                                   3902.70883606364941
  Hartree energy:                                            4827.68565216459046
  Exchange-correlation energy:                              -1664.29071886814472

  Total energy:                                             -5254.42815607565171

 !-----------------------------------------------------------------------------!
                     Mulliken Population Analysis

 #  Atom  Element  Kind  Atomic population                           Net charge
       1     H        1          0.786775                              0.213225
       2     H        1          0.786775                              0.213225
       3     H        1          0.698145                              0.301855
       4     H        1          0.698145                              0.301855
       5     C        2          4.619458                             -0.619458
       6     C        2          4.195478                             -0.195478
       7     C        2          4.195478                             -0.195478
       8     H        1          0.768607                              0.231393
       9     H        1          0.768607                              0.231393
      10     C        2          4.048741                             -0.048741
      11     C        2          4.048741                             -0.048741
      12     C        2          4.241114                             -0.241114
      13     C        2          4.241114                             -0.241114
      14     C        2          4.164513                             -0.164513
      15     C        2          4.164513                             -0.164513
      16     C        2          3.962749                              0.037251
      17     C        2          3.962749                              0.037251
      18     H        1          0.808357                              0.191643
      19     H        1          0.808357                              0.191643
      20     C        2          4.091179                             -0.091179
      21     C        2          4.091179                             -0.091179
      22     C        2          3.952251                              0.047749
      23     C        2          3.962004                              0.037996
      24     C        2          4.064102                             -0.064102
      25     C        2          4.064102                             -0.064102
      26     H        1          0.802201                              0.197799
      27     H        1          0.802201                              0.197799
      28     C        2          3.981006                              0.018994
      29     C        2          3.981006                              0.018994
      30     C        2          4.139299                             -0.139299
      31     C        2          4.139299                             -0.139299
      32     C        2          4.144596                             -0.144596
      33     C        2          4.144596                             -0.144596
      34     C        2          3.982257                              0.017743
      35     C        2          3.982257                              0.017743
      36     H        1          0.813099                              0.186901
      37     H        1          0.813099                              0.186901
      38     C        2          4.069958                             -0.069958
      39     C        2          4.069958                             -0.069958
      40     C        2          3.969965                              0.030035
      41     C        2          3.971326                              0.028674
      42     C        2          4.067957                             -0.067957
      43     C        2          4.067957                             -0.067957
      44     H        1          0.812191                              0.187809
      45     H        1          0.812191                              0.187809
      46     C        2          3.986401                              0.013599
      47     C        2          3.986401                              0.013599
      48     C        2          4.138918                             -0.138918
      49     C        2          4.138918                             -0.138918
      50     C        2          4.139061                             -0.139061
      51     C        2          4.139061                             -0.139061
      52     C        2          3.986677                              0.013323
      53     C        2          3.986677                              0.013323
      54     H        1          0.813847                              0.186153
      55     H        1          0.813847                              0.186153
      56     C        2          4.072149                             -0.072149
      57     C        2          4.072149                             -0.072149
      58     C        2          3.970118                              0.029882
      59     C        2          3.971096                              0.028904
      60     C        2          4.071425                             -0.071425
      61     C        2          4.071425                             -0.071425
      62     H        1          0.813593                              0.186407
      63     H        1          0.813593                              0.186407
      64     C        2          3.987171                              0.012829
      65     C        2          3.987171                              0.012829
      66     C        2          4.139961                             -0.139961
      67     C        2          4.139961                             -0.139961
      68     C        2          4.140394                             -0.140394
      69     C        2          4.140394                             -0.140394
      70     C        2          3.987408                              0.012592
      71     C        2          3.987408                              0.012592
      72     H        1          0.813692                              0.186308
      73     H        1          0.813692                              0.186308
      74     C        2          4.072730                             -0.072730
      75     C        2          4.072730                             -0.072730
      76     C        2          3.970995                              0.029005
      77     C        2          3.971223                              0.028777
      78     C        2          4.072554                             -0.072554
      79     C        2          4.072554                             -0.072554
      80     H        1          0.813596                              0.186404
      81     H        1          0.813596                              0.186404
      82     C        2          3.987675                              0.012325
      83     C        2          3.987675                              0.012325
      84     C        2          4.140357                             -0.140357
      85     C        2          4.140357                             -0.140357
      86     C        2          4.140509                             -0.140509
      87     C        2          4.140509                             -0.140509
      88     C        2          3.987644                              0.012356
      89     C        2          3.987644                              0.012356
      90     H        1          0.813744                              0.186256
      91     H        1          0.813744                              0.186256
      92     C        2          4.072450                             -0.072450
      93     C        2          4.072450                             -0.072450
      94     C        2          3.971594                              0.028406
      95     C        2          3.971615                              0.028385
      96     C        2          4.072444                             -0.072444
      97     C        2          4.072444                             -0.072444
      98     H        1          0.813813                              0.186187
      99     H        1          0.813813                              0.186187
     100     C        2          3.987750                              0.012250
     101     C        2          3.987750                              0.012250
     102     C        2          4.140201                             -0.140201
     103     C        2          4.140201                             -0.140201
     104     C        2          4.140241                             -0.140241
     105     C        2          4.140241                             -0.140241
     106     C        2          3.987752                              0.012248
     107     C        2          3.987752                              0.012248
     108     H        1          0.813813                              0.186187
     109     H        1          0.813813                              0.186187
     110     C        2          4.072504                             -0.072504
     111     C        2          4.072504                             -0.072504
     112     C        2          3.971407                              0.028593
     113     C        2          3.971482                              0.028518
     114     C        2          4.072514                             -0.072514
     115     C        2          4.072514                             -0.072514
     116     H        1          0.813804                              0.186196
     117     H        1          0.813804                              0.186196
     118     C        2          3.987699                              0.012301
     119     C        2          3.987699                              0.012301
     120     C        2          4.140272                             -0.140272
     121     C        2          4.140272                             -0.140272
     122     C        2          4.140336                             -0.140336
     123     C        2          4.140336                             -0.140336
     124     C        2          3.987727                              0.012273
     125     C        2          3.987727                              0.012273
     126     H        1          0.813795                              0.186205
     127     H        1          0.813795                              0.186205
     128     C        2          4.072526                             -0.072526
     129     C        2          4.072526                             -0.072526
     130     C        2          3.971444                              0.028556
     131     C        2          3.971473                              0.028527
     132     C        2          4.072538                             -0.072538
     133     C        2          4.072538                             -0.072538
     134     H        1          0.813775                              0.186225
     135     H        1          0.813775                              0.186225
     136     C        2          3.987727                              0.012273
     137     C        2          3.987727                              0.012273
     138     C        2          4.140281                             -0.140281
     139     C        2          4.140281                             -0.140281
     140     C        2          4.140300                             -0.140300
     141     C        2          4.140300                             -0.140300
     142     C        2          3.987735                              0.012265
     143     C        2          3.987735                              0.012265
     144     H        1          0.813798                              0.186202
     145     H        1          0.813798                              0.186202
     146     C        2          4.072511                             -0.072511
     147     C        2          4.072511                             -0.072511
     148     C        2          3.971490                              0.028510
     149     C        2          3.971494                              0.028506
     150     C        2          4.072516                             -0.072516
     151     C        2          4.072516                             -0.072516
     152     H        1          0.813782                              0.186218
     153     H        1          0.813782                              0.186218
     154     C        2          3.987730                              0.012270
     155     C        2          3.987730                              0.012270
     156     C        2          4.140256                             -0.140256
     157     C        2          4.140256                             -0.140256
     158     C        2          4.140265                             -0.140265
     159     C        2          4.140265                             -0.140265
     160     C        2          3.987738                              0.012262
     161     C        2          3.987738                              0.012262
     162     H        1          0.813798                              0.186202
     163     H        1          0.813798                              0.186202
     164     C        2          4.072515                             -0.072515
     165     C        2          4.072515                             -0.072515
     166     C        2          3.971483                              0.028517
     167     C        2          3.971487                              0.028513
     168     C        2          4.072516                             -0.072516
     169     C        2          4.072516                             -0.072516
     170     H        1          0.813779                              0.186221
     171     H        1          0.813779                              0.186221
     172     C        2          3.987726                              0.012274
     173     C        2          3.987726                              0.012274
     174     C        2          4.140258                             -0.140258
     175     C        2          4.140258                             -0.140258
     176     C        2          4.140266                             -0.140266
     177     C        2          4.140266                             -0.140266
     178     C        2          3.987730                              0.012270
     179     C        2          3.987730                              0.012270
     180     H        1          0.813792                              0.186208
     181     H        1          0.813792                              0.186208
     182     C        2          4.072517                             -0.072517
     183     C        2          4.072517                             -0.072517
     184     C        2          3.971484                              0.028516
     185     C        2          3.971488                              0.028512
     186     C        2          4.072516                             -0.072516
     187     C        2          4.072516                             -0.072516
     188     H        1          0.813779                              0.186221
     189     H        1          0.813779                              0.186221
     190     C        2          3.987728                              0.012272
     191     C        2          3.987728                              0.012272
     192     C        2          4.140254                             -0.140254
     193     C        2          4.140254                             -0.140254
     194     C        2          4.140260                             -0.140260
     195     C        2          4.140260                             -0.140260
     196     C        2          3.987727                              0.012273
     197     C        2          3.987727                              0.012273
     198     H        1          0.813789                              0.186211
     199     H        1          0.813789                              0.186211
     200     C        2          4.072516                             -0.072516
     201     C        2          4.072516                             -0.072516
     202     C        2          3.971483                              0.028517
     203     C        2          3.971490                              0.028510
     204     C        2          4.072512                             -0.072512
     205     C        2          4.072512                             -0.072512
     206     H        1          0.813779                              0.186221
     207     H        1          0.813779                              0.186221
     208     C        2          3.987730                              0.012270
     209     C        2          3.987730                              0.012270
     210     C        2          4.140250                             -0.140250
     211     C        2          4.140250                             -0.140250
     212     C        2          4.140256                             -0.140256
     213     C        2          4.140256                             -0.140256
     214     C        2          3.987727                              0.012273
     215     C        2          3.987727                              0.012273
     216     H        1          0.813786                              0.186214
     217     H        1          0.813786                              0.186214
     218     C        2          4.072514                             -0.072514
     219     C        2          4.072514                             -0.072514
     220     C        2          3.971479                              0.028521
     221     C        2          3.971487                              0.028513
     222     C        2          4.072510                             -0.072510
     223     C        2          4.072510                             -0.072510
     224     H        1          0.813779                              0.186221
     225     H        1          0.813779                              0.186221
     226     C        2          3.987732                              0.012268
     227     C        2          3.987732                              0.012268
     228     C        2          4.140249                             -0.140249
     229     C        2          4.140249                             -0.140249
     230     C        2          4.140255                             -0.140255
     231     C        2          4.140255                             -0.140255
     232     C        2          3.987728                              0.012272
     233     C        2          3.987728                              0.012272
     234     H        1          0.813783                              0.186217
     235     H        1          0.813783                              0.186217
     236     C        2          4.072513                             -0.072513
     237     C        2          4.072513                             -0.072513
     238     C        2          3.971478                              0.028522
     239     C        2          3.971483                              0.028517
     240     C        2          4.072510                             -0.072510
     241     C        2          4.072510                             -0.072510
     242     H        1          0.813778                              0.186222
     243     H        1          0.813778                              0.186222
     244     C        2          3.987731                              0.012269
     245     C        2          3.987731                              0.012269
     246     C        2          4.140249                             -0.140249
     247     C        2          4.140249                             -0.140249
     248     C        2          4.140252                             -0.140252
     249     C        2          4.140252                             -0.140252
     250     C        2          3.987730                              0.012270
     251     C        2          3.987730                              0.012270
     252     H        1          0.813782                              0.186218
     253     H        1          0.813782                              0.186218
     254     C        2          4.072510                             -0.072510
     255     C        2          4.072510                             -0.072510
     256     C        2          3.971478                              0.028522
     257     C        2          3.971481                              0.028519
     258     C        2          4.072510                             -0.072510
     259     C        2          4.072510                             -0.072510
     260     H        1          0.813778                              0.186222
     261     H        1          0.813778                              0.186222
     262     C        2          3.987729                              0.012271
     263     C        2          3.987729                              0.012271
     264     C        2          4.140249                             -0.140249
     265     C        2          4.140249                             -0.140249
     266     C        2          4.140250                             -0.140250
     267     C        2          4.140250                             -0.140250
     268     C        2          3.987731                              0.012269
     269     C        2          3.987731                              0.012269
     270     H        1          0.813781                              0.186219
     271     H        1          0.813781                              0.186219
     272     C        2          4.072509                             -0.072509
     273     C        2          4.072509                             -0.072509
     274     C        2          3.971481                              0.028519
     275     C        2          3.971480                              0.028520
     276     C        2          4.072511                             -0.072511
     277     C        2          4.072511                             -0.072511
     278     H        1          0.813778                              0.186222
     279     H        1          0.813778                              0.186222
     280     C        2          3.987726                              0.012274
     281     C        2          3.987726                              0.012274
     282     C        2          4.140248                             -0.140248
     283     C        2          4.140248                             -0.140248
     284     C        2          4.140248                             -0.140248
     285     C        2          4.140248                             -0.140248
     286     C        2          3.987730                              0.012270
     287     C        2          3.987730                              0.012270
     288     H        1          0.813782                              0.186218
     289     H        1          0.813782                              0.186218
     290     C        2          4.072509                             -0.072509
     291     C        2          4.072509                             -0.072509
     292     C        2          3.971484                              0.028516
     293     C        2          3.971481                              0.028519
     294     C        2          4.072511                             -0.072511
     295     C        2          4.072511                             -0.072511
     296     H        1          0.813779                              0.186221
     297     H        1          0.813779                              0.186221
     298     C        2          3.987724                              0.012276
     299     C        2          3.987724                              0.012276
     300     C        2          4.140247                             -0.140247
     301     C        2          4.140247                             -0.140247
     302     C        2          4.140247                             -0.140247
     303     C        2          4.140247                             -0.140247
     304     C        2          3.987727                              0.012273
     305     C        2          3.987727                              0.012273
     306     H        1          0.813782                              0.186218
     307     H        1          0.813782                              0.186218
     308     C        2          4.072510                             -0.072510
     309     C        2          4.072510                             -0.072510
     310     C        2          3.971484                              0.028516
     311     C        2          3.971483                              0.028517
     312     C        2          4.072511                             -0.072511
     313     C        2          4.072511                             -0.072511
     314     H        1          0.813780                              0.186220
     315     H        1          0.813780                              0.186220
     316     C        2          3.987724                              0.012276
     317     C        2          3.987724                              0.012276
     318     C        2          4.140246                             -0.140246
     319     C        2          4.140246                             -0.140246
     320     C        2          4.140247                             -0.140247
     321     C        2          4.140247                             -0.140247
     322     C        2          3.987724                              0.012276
     323     C        2          3.987724                              0.012276
     324     H        1          0.813782                              0.186218
     325     H        1          0.813782                              0.186218
     326     C        2          4.072511                             -0.072511
     327     C        2          4.072511                             -0.072511
     328     C        2          3.971482                              0.028518
     329     C        2          3.971485                              0.028515
     330     C        2          4.072509                             -0.072509
     331     C        2          4.072509                             -0.072509
     332     H        1          0.813780                              0.186220
     333     H        1          0.813780                              0.186220
     334     C        2          3.987727                              0.012273
     335     C        2          3.987727                              0.012273
     336     C        2          4.140245                             -0.140245
     337     C        2          4.140245                             -0.140245
     338     C        2          4.140248                             -0.140248
     339     C        2          4.140248                             -0.140248
     340     C        2          3.987724                              0.012276
     341     C        2          3.987724                              0.012276
     342     H        1          0.813781                              0.186219
     343     H        1          0.813781                              0.186219
     344     C        2          4.072511                             -0.072511
     345     C        2          4.072511                             -0.072511
     346     C        2          3.971479                              0.028521
     347     C        2          3.971485                              0.028515
     348     C        2          4.072508                             -0.072508
     349     C        2          4.072508                             -0.072508
     350     H        1          0.813779                              0.186221
     351     H        1          0.813779                              0.186221
     352     C        2          3.987729                              0.012271
     353     C        2          3.987729                              0.012271
     354     C        2          4.140245                             -0.140245
     355     C        2          4.140245                             -0.140245
     356     C        2          4.140248                             -0.140248
     357     C        2          4.140248                             -0.140248
     358     C        2          3.987726                              0.012274
     359     C        2          3.987726                              0.012274
     360     H        1          0.813780                              0.186220
     361     H        1          0.813780                              0.186220
     362     C        2          4.072510                             -0.072510
     363     C        2          4.072510                             -0.072510
     364     C        2          3.971478                              0.028522
     365     C        2          3.971482                              0.028518
     366     C        2          4.072508                             -0.072508
     367     C        2          4.072508                             -0.072508
     368     H        1          0.813778                              0.186222
     369     H        1          0.813778                              0.186222
     370     C        2          3.987730                              0.012270
     371     C        2          3.987730                              0.012270
     372     C        2          4.140245                             -0.140245
     373     C        2          4.140245                             -0.140245
     374     C        2          4.140247                             -0.140247
     375     C        2          4.140247                             -0.140247
     376     C        2          3.987728                              0.012272
     377     C        2          3.987728                              0.012272
     378     H        1          0.813779                              0.186221
     379     H        1          0.813779                              0.186221
     380     C        2          4.072509                             -0.072509
     381     C        2          4.072509                             -0.072509
     382     C        2          3.971478                              0.028522
     383     C        2          3.971479                              0.028521
     384     C        2          4.072509                             -0.072509
     385     C        2          4.072509                             -0.072509
     386     H        1          0.813778                              0.186222
     387     H        1          0.813778                              0.186222
     388     C        2          3.987728                              0.012272
     389     C        2          3.987728                              0.012272
     390     C        2          4.140246                             -0.140246
     391     C        2          4.140246                             -0.140246
     392     C        2          4.140246                             -0.140246
     393     C        2          4.140246                             -0.140246
     394     C        2          3.987730                              0.012270
     395     C        2          3.987730                              0.012270
     396     H        1          0.813779                              0.186221
     397     H        1          0.813779                              0.186221
     398     C        2          4.072508                             -0.072508
     399     C        2          4.072508                             -0.072508
     400     C        2          3.971480                              0.028520
     401     C        2          3.971478                              0.028522
     402     C        2          4.072510                             -0.072510
     403     C        2          4.072510                             -0.072510
     404     H        1          0.813778                              0.186222
     405     H        1          0.813778                              0.186222
     406     C        2          3.987726                              0.012274
     407     C        2          3.987726                              0.012274
     408     C        2          4.140247                             -0.140247
     409     C        2          4.140247                             -0.140247
     410     C        2          4.140245                             -0.140245
     411     C        2          4.140245                             -0.140245
     412     C        2          3.987730                              0.012270
     413     C        2          3.987730                              0.012270
     414     H        1          0.813780                              0.186220
     415     H        1          0.813780                              0.186220
     416     C        2          4.072508                             -0.072508
     417     C        2          4.072508                             -0.072508
     418     C        2          3.971483                              0.028517
     419     C        2          3.971479                              0.028521
     420     C        2          4.072511                             -0.072511
     421     C        2          4.072511                             -0.072511
     422     H        1          0.813779                              0.186221
     423     H        1          0.813779                              0.186221
     424     C        2          3.987723                              0.012277
     425     C        2          3.987723                              0.012277
     426     C        2          4.140246                             -0.140246
     427     C        2          4.140246                             -0.140246
     428     C        2          4.140245                             -0.140245
     429     C        2          4.140245                             -0.140245
     430     C        2          3.987727                              0.012273
     431     C        2          3.987727                              0.012273
     432     H        1          0.813781                              0.186219
     433     H        1          0.813781                              0.186219
     434     C        2          4.072509                             -0.072509
     435     C        2          4.072509                             -0.072509
     436     C        2          3.971484                              0.028516
     437     C        2          3.971481                              0.028519
     438     C        2          4.072510                             -0.072510
     439     C        2          4.072510                             -0.072510
     440     H        1          0.813780                              0.186220
     441     H        1          0.813780                              0.186220
     442     C        2          3.987723                              0.012277
     443     C        2          3.987723                              0.012277
     444     C        2          4.140245                             -0.140245
     445     C        2          4.140245                             -0.140245
     446     C        2          4.140245                             -0.140245
     447     C        2          4.140245                             -0.140245
     448     C        2          3.987724                              0.012276
     449     C        2          3.987724                              0.012276
     450     H        1          0.813781                              0.186219
     451     H        1          0.813781                              0.186219
     452     C        2          4.072510                             -0.072510
     453     C        2          4.072510                             -0.072510
     454     C        2          3.971482                              0.028518
     455     C        2          3.971484                              0.028516
     456     C        2          4.072509                             -0.072509
     457     C        2          4.072509                             -0.072509
     458     H        1          0.813780                              0.186220
     459     H        1          0.813780                              0.186220
     460     C        2          3.987725                              0.012275
     461     C        2          3.987725                              0.012275
     462     C        2          4.140244                             -0.140244
     463     C        2          4.140244                             -0.140244
     464     C        2          4.140246                             -0.140246
     465     C        2          4.140246                             -0.140246
     466     C        2          3.987723                              0.012277
     467     C        2          3.987723                              0.012277
     468     H        1          0.813780                              0.186220
     469     H        1          0.813780                              0.186220
     470     C        2          4.072511                             -0.072511
     471     C        2          4.072511                             -0.072511
     472     C        2          3.971480                              0.028520
     473     C        2          3.971484                              0.028516
     474     C        2          4.072508                             -0.072508
     475     C        2          4.072508                             -0.072508
     476     H        1          0.813780                              0.186220
     477     H        1          0.813780                              0.186220
     478     C        2          3.987729                              0.012271
     479     C        2          3.987729                              0.012271
     480     C        2          4.140244                             -0.140244
     481     C        2          4.140244                             -0.140244
     482     C        2          4.140247                             -0.140247
     483     C        2          4.140247                             -0.140247
     484     C        2          3.987725                              0.012275
     485     C        2          3.987725                              0.012275
     486     H        1          0.813779                              0.186221
     487     H        1          0.813779                              0.186221
     488     C        2          4.072510                             -0.072510
     489     C        2          4.072510                             -0.072510
     490     C        2          3.971478                              0.028522
     491     C        2          3.971482                              0.028518
     492     C        2          4.072507                             -0.072507
     493     C        2          4.072507                             -0.072507
     494     H        1          0.813779                              0.186221
     495     H        1          0.813779                              0.186221
     496     C        2          3.987730                              0.012270
     497     C        2          3.987730                              0.012270
     498     C        2          4.140245                             -0.140245
     499     C        2          4.140245                             -0.140245
     500     C        2          4.140247                             -0.140247
     501     C        2          4.140247                             -0.140247
     502     C        2          3.987727                              0.012273
     503     C        2          3.987727                              0.012273
     504     H        1          0.813778                              0.186222
     505     H        1          0.813778                              0.186222
     506     C        2          4.072509                             -0.072509
     507     C        2          4.072509                             -0.072509
     508     C        2          3.971478                              0.028522
     509     C        2          3.971479                              0.028521
     510     C        2          4.072508                             -0.072508
     511     C        2          4.072508                             -0.072508
     512     H        1          0.813778                              0.186222
     513     H        1          0.813778                              0.186222
     514     C        2          3.987729                              0.012271
     515     C        2          3.987729                              0.012271
     516     C        2          4.140246                             -0.140246
     517     C        2          4.140246                             -0.140246
     518     C        2          4.140246                             -0.140246
     519     C        2          4.140246                             -0.140246
     520     C        2          3.987729                              0.012271
     521     C        2          3.987729                              0.012271
     522     H        1          0.813778                              0.186222
     523     H        1          0.813778                              0.186222
     524     C        2          4.072508                             -0.072508
     525     C        2          4.072508                             -0.072508
     526     C        2          3.971480                              0.028520
     527     C        2          3.971478                              0.028522
     528     C        2          4.072509                             -0.072509
     529     C        2          4.072509                             -0.072509
     530     H        1          0.813778                              0.186222
     531     H        1          0.813778                              0.186222
     532     C        2          3.987727                              0.012273
     533     C        2          3.987727                              0.012273
     534     C        2          4.140247                             -0.140247
     535     C        2          4.140247                             -0.140247
     536     C        2          4.140245                             -0.140245
     537     C        2          4.140245                             -0.140245
     538     C        2          3.987730                              0.012270
     539     C        2          3.987730                              0.012270
     540     H        1          0.813779                              0.186221
     541     H        1          0.813779                              0.186221
     542     C        2          4.072507                             -0.072507
     543     C        2          4.072507                             -0.072507
     544     C        2          3.971483                              0.028517
     545     C        2          3.971479                              0.028521
     546     C        2          4.072510                             -0.072510
     547     C        2          4.072510                             -0.072510
     548     H        1          0.813779                              0.186221
     549     H        1          0.813779                              0.186221
     550     C        2          3.987724                              0.012276
     551     C        2          3.987724                              0.012276
     552     C        2          4.140246                             -0.140246
     553     C        2          4.140246                             -0.140246
     554     C        2          4.140244                             -0.140244
     555     C        2          4.140244                             -0.140244
     556     C        2          3.987728                              0.012272
     557     C        2          3.987728                              0.012272
     558     H        1          0.813780                              0.186220
     559     H        1          0.813780                              0.186220
     560     C        2          4.072508                             -0.072508
     561     C        2          4.072508                             -0.072508
     562     C        2          3.971484                              0.028516
     563     C        2          3.971480                              0.028520
     564     C        2          4.072510                             -0.072510
     565     C        2          4.072510                             -0.072510
     566     H        1          0.813780                              0.186220
     567     H        1          0.813780                              0.186220
     568     C        2          3.987723                              0.012277
     569     C        2          3.987723                              0.012277
     570     C        2          4.140246                             -0.140246
     571     C        2          4.140246                             -0.140246
     572     C        2          4.140245                             -0.140245
     573     C        2          4.140245                             -0.140245
     574     C        2          3.987725                              0.012275
     575     C        2          3.987725                              0.012275
     576     H        1          0.813780                              0.186220
     577     H        1          0.813780                              0.186220
     578     C        2          4.072509                             -0.072509
     579     C        2          4.072509                             -0.072509
     580     C        2          3.971483                              0.028517
     581     C        2          3.971483                              0.028517
     582     C        2          4.072509                             -0.072509
     583     C        2          4.072509                             -0.072509
     584     H        1          0.813780                              0.186220
     585     H        1          0.813780                              0.186220
     586     C        2          3.987725                              0.012275
     587     C        2          3.987725                              0.012275
     588     C        2          4.140245                             -0.140245
     589     C        2          4.140245                             -0.140245
     590     C        2          4.140246                             -0.140246
     591     C        2          4.140246                             -0.140246
     592     C        2          3.987723                              0.012277
     593     C        2          3.987723                              0.012277
     594     H        1          0.813780                              0.186220
     595     H        1          0.813780                              0.186220
     596     C        2          4.072510                             -0.072510
     597     C        2          4.072510                             -0.072510
     598     C        2          3.971480                              0.028520
     599     C        2          3.971484                              0.028516
     600     C        2          4.072508                             -0.072508
     601     C        2          4.072508                             -0.072508
     602     H        1          0.813780                              0.186220
     603     H        1          0.813780                              0.186220
     604     C        2          3.987728                              0.012272
     605     C        2          3.987728                              0.012272
     606     C        2          4.140244                             -0.140244
     607     C        2          4.140244                             -0.140244
     608     C        2          4.140246                             -0.140246
     609     C        2          4.140246                             -0.140246
     610     C        2          3.987724                              0.012276
     611     C        2          3.987724                              0.012276
     612     H        1          0.813779                              0.186221
     613     H        1          0.813779                              0.186221
     614     C        2          4.072510                             -0.072510
     615     C        2          4.072510                             -0.072510
     616     C        2          3.971479                              0.028521
     617     C        2          3.971483                              0.028517
     618     C        2          4.072507                             -0.072507
     619     C        2          4.072507                             -0.072507
     620     H        1          0.813779                              0.186221
     621     H        1          0.813779                              0.186221
     622     C        2          3.987730                              0.012270
     623     C        2          3.987730                              0.012270
     624     C        2          4.140245                             -0.140245
     625     C        2          4.140245                             -0.140245
     626     C        2          4.140247                             -0.140247
     627     C        2          4.140247                             -0.140247
     628     C        2          3.987727                              0.012273
     629     C        2          3.987727                              0.012273
     630     H        1          0.813778                              0.186222
     631     H        1          0.813778                              0.186222
     632     C        2          4.072509                             -0.072509
     633     C        2          4.072509                             -0.072509
     634     C        2          3.971478                              0.028522
     635     C        2          3.971480                              0.028520
     636     C        2          4.072508                             -0.072508
     637     C        2          4.072508                             -0.072508
     638     H        1          0.813778                              0.186222
     639     H        1          0.813778                              0.186222
     640     C        2          3.987729                              0.012271
     641     C        2          3.987729                              0.012271
     642     C        2          4.140246                             -0.140246
     643     C        2          4.140246                             -0.140246
     644     C        2          4.140246                             -0.140246
     645     C        2          4.140246                             -0.140246
     646     C        2          3.987729                              0.012271
     647     C        2          3.987729                              0.012271
     648     H        1          0.813778                              0.186222
     649     H        1          0.813778                              0.186222
     650     C        2          4.072508                             -0.072508
     651     C        2          4.072508                             -0.072508
     652     C        2          3.971479                              0.028521
     653     C        2          3.971478                              0.028522
     654     C        2          4.072509                             -0.072509
     655     C        2          4.072509                             -0.072509
     656     H        1          0.813778                              0.186222
     657     H        1          0.813778                              0.186222
     658     C        2          3.987727                              0.012273
     659     C        2          3.987727                              0.012273
     660     C        2          4.140247                             -0.140247
     661     C        2          4.140247                             -0.140247
     662     C        2          4.140245                             -0.140245
     663     C        2          4.140245                             -0.140245
     664     C        2          3.987730                              0.012270
     665     C        2          3.987730                              0.012270
     666     H        1          0.813779                              0.186221
     667     H        1          0.813779                              0.186221
     668     C        2          4.072507                             -0.072507
     669     C        2          4.072507                             -0.072507
     670     C        2          3.971482                              0.028518
     671     C        2          3.971478                              0.028522
     672     C        2          4.072510                             -0.072510
     673     C        2          4.072510                             -0.072510
     674     H        1          0.813779                              0.186221
     675     H        1          0.813779                              0.186221
     676     C        2          3.987725                              0.012275
     677     C        2          3.987725                              0.012275
     678     C        2          4.140247                             -0.140247
     679     C        2          4.140247                             -0.140247
     680     C        2          4.140244                             -0.140244
     681     C        2          4.140244                             -0.140244
     682     C        2          3.987729                              0.012271
     683     C        2          3.987729                              0.012271
     684     H        1          0.813780                              0.186220
     685     H        1          0.813780                              0.186220
     686     C        2          4.072508                             -0.072508
     687     C        2          4.072508                             -0.072508
     688     C        2          3.971484                              0.028516
     689     C        2          3.971480                              0.028520
     690     C        2          4.072511                             -0.072511
     691     C        2          4.072511                             -0.072511
     692     H        1          0.813780                              0.186220
     693     H        1          0.813780                              0.186220
     694     C        2          3.987723                              0.012277
     695     C        2          3.987723                              0.012277
     696     C        2          4.140246                             -0.140246
     697     C        2          4.140246                             -0.140246
     698     C        2          4.140244                             -0.140244
     699     C        2          4.140244                             -0.140244
     700     C        2          3.987725                              0.012275
     701     C        2          3.987725                              0.012275
     702     H        1          0.813780                              0.186220
     703     H        1          0.813780                              0.186220
     704     C        2          4.072509                             -0.072509
     705     C        2          4.072509                             -0.072509
     706     C        2          3.971484                              0.028516
     707     C        2          3.971482                              0.028518
     708     C        2          4.072510                             -0.072510
     709     C        2          4.072510                             -0.072510
     710     H        1          0.813781                              0.186219
     711     H        1          0.813781                              0.186219
     712     C        2          3.987724                              0.012276
     713     C        2          3.987724                              0.012276
     714     C        2          4.140245                             -0.140245
     715     C        2          4.140245                             -0.140245
     716     C        2          4.140245                             -0.140245
     717     C        2          4.140245                             -0.140245
     718     C        2          3.987723                              0.012277
     719     C        2          3.987723                              0.012277
     720     H        1          0.813780                              0.186220
     721     H        1          0.813780                              0.186220
     722     C        2          4.072510                             -0.072510
     723     C        2          4.072510                             -0.072510
     724     C        2          3.971481                              0.028519
     725     C        2          3.971484                              0.028516
     726     C        2          4.072509                             -0.072509
     727     C        2          4.072509                             -0.072509
     728     H        1          0.813781                              0.186219
     729     H        1          0.813781                              0.186219
     730     C        2          3.987727                              0.012273
     731     C        2          3.987727                              0.012273
     732     C        2          4.140245                             -0.140245
     733     C        2          4.140245                             -0.140245
     734     C        2          4.140246                             -0.140246
     735     C        2          4.140246                             -0.140246
     736     C        2          3.987723                              0.012277
     737     C        2          3.987723                              0.012277
     738     H        1          0.813779                              0.186221
     739     H        1          0.813779                              0.186221
     740     C        2          4.072511                             -0.072511
     741     C        2          4.072511                             -0.072511
     742     C        2          3.971479                              0.028521
     743     C        2          3.971483                              0.028517
     744     C        2          4.072508                             -0.072508
     745     C        2          4.072508                             -0.072508
     746     H        1          0.813780                              0.186220
     747     H        1          0.813780                              0.186220
     748     C        2          3.987730                              0.012270
     749     C        2          3.987730                              0.012270
     750     C        2          4.140245                             -0.140245
     751     C        2          4.140245                             -0.140245
     752     C        2          4.140247                             -0.140247
     753     C        2          4.140247                             -0.140247
     754     C        2          3.987726                              0.012274
     755     C        2          3.987726                              0.012274
     756     H        1          0.813778                              0.186222
     757     H        1          0.813778                              0.186222
     758     C        2          4.072510                             -0.072510
     759     C        2          4.072510                             -0.072510
     760     C        2          3.971479                              0.028521
     761     C        2          3.971480                              0.028520
     762     C        2          4.072508                             -0.072508
     763     C        2          4.072508                             -0.072508
     764     H        1          0.813779                              0.186221
     765     H        1          0.813779                              0.186221
     766     C        2          3.987730                              0.012270
     767     C        2          3.987730                              0.012270
     768     C        2          4.140246                             -0.140246
     769     C        2          4.140246                             -0.140246
     770     C        2          4.140246                             -0.140246
     771     C        2          4.140246                             -0.140246
     772     C        2          3.987728                              0.012272
     773     C        2          3.987728                              0.012272
     774     H        1          0.813778                              0.186222
     775     H        1          0.813778                              0.186222
     776     C        2          4.072509                             -0.072509
     777     C        2          4.072509                             -0.072509
     778     C        2          3.971479                              0.028521
     779     C        2          3.971478                              0.028522
     780     C        2          4.072509                             -0.072509
     781     C        2          4.072509                             -0.072509
     782     H        1          0.813779                              0.186221
     783     H        1          0.813779                              0.186221
     784     C        2          3.987728                              0.012272
     785     C        2          3.987728                              0.012272
     786     C        2          4.140247                             -0.140247
     787     C        2          4.140247                             -0.140247
     788     C        2          4.140245                             -0.140245
     789     C        2          4.140245                             -0.140245
     790     C        2          3.987730                              0.012270
     791     C        2          3.987730                              0.012270
     792     H        1          0.813778                              0.186222
     793     H        1          0.813778                              0.186222
     794     C        2          4.072508                             -0.072508
     795     C        2          4.072508                             -0.072508
     796     C        2          3.971482                              0.028518
     797     C        2          3.971478                              0.028522
     798     C        2          4.072510                             -0.072510
     799     C        2          4.072510                             -0.072510
     800     H        1          0.813780                              0.186220
     801     H        1          0.813780                              0.186220
     802     C        2          3.987726                              0.012274
     803     C        2          3.987726                              0.012274
     804     C        2          4.140248                             -0.140248
     805     C        2          4.140248                             -0.140248
     806     C        2          4.140245                             -0.140245
     807     C        2          4.140245                             -0.140245
     808     C        2          3.987729                              0.012271
     809     C        2          3.987729                              0.012271
     810     H        1          0.813779                              0.186221
     811     H        1          0.813779                              0.186221
     812     C        2          4.072508                             -0.072508
     813     C        2          4.072508                             -0.072508
     814     C        2          3.971485                              0.028515
     815     C        2          3.971479                              0.028521
     816     C        2          4.072511                             -0.072511
     817     C        2          4.072511                             -0.072511
     818     H        1          0.813781                              0.186219
     819     H        1          0.813781                              0.186219
     820     C        2          3.987724                              0.012276
     821     C        2          3.987724                              0.012276
     822     C        2          4.140248                             -0.140248
     823     C        2          4.140248                             -0.140248
     824     C        2          4.140245                             -0.140245
     825     C        2          4.140245                             -0.140245
     826     C        2          3.987727                              0.012273
     827     C        2          3.987727                              0.012273
     828     H        1          0.813780                              0.186220
     829     H        1          0.813780                              0.186220
     830     C        2          4.072509                             -0.072509
     831     C        2          4.072509                             -0.072509
     832     C        2          3.971485                              0.028515
     833     C        2          3.971482                              0.028518
     834     C        2          4.072511                             -0.072511
     835     C        2          4.072511                             -0.072511
     836     H        1          0.813782                              0.186218
     837     H        1          0.813782                              0.186218
     838     C        2          3.987724                              0.012276
     839     C        2          3.987724                              0.012276
     840     C        2          4.140247                             -0.140247
     841     C        2          4.140247                             -0.140247
     842     C        2          4.140246                             -0.140246
     843     C        2          4.140246                             -0.140246
     844     C        2          3.987724                              0.012276
     845     C        2          3.987724                              0.012276
     846     H        1          0.813780                              0.186220
     847     H        1          0.813780                              0.186220
     848     C        2          4.072511                             -0.072511
     849     C        2          4.072511                             -0.072511
     850     C        2          3.971483                              0.028517
     851     C        2          3.971484                              0.028516
     852     C        2          4.072510                             -0.072510
     853     C        2          4.072510                             -0.072510
     854     H        1          0.813782                              0.186218
     855     H        1          0.813782                              0.186218
     856     C        2          3.987727                              0.012273
     857     C        2          3.987727                              0.012273
     858     C        2          4.140247                             -0.140247
     859     C        2          4.140247                             -0.140247
     860     C        2          4.140247                             -0.140247
     861     C        2          4.140247                             -0.140247
     862     C        2          3.987724                              0.012276
     863     C        2          3.987724                              0.012276
     864     H        1          0.813779                              0.186221
     865     H        1          0.813779                              0.186221
     866     C        2          4.072511                             -0.072511
     867     C        2          4.072511                             -0.072511
     868     C        2          3.971481                              0.028519
     869     C        2          3.971484                              0.028516
     870     C        2          4.072509                             -0.072509
     871     C        2          4.072509                             -0.072509
     872     H        1          0.813782                              0.186218
     873     H        1          0.813782                              0.186218
     874     C        2          3.987730                              0.012270
     875     C        2          3.987730                              0.012270
     876     C        2          4.140248                             -0.140248
     877     C        2          4.140248                             -0.140248
     878     C        2          4.140248                             -0.140248
     879     C        2          4.140248                             -0.140248
     880     C        2          3.987726                              0.012274
     881     C        2          3.987726                              0.012274
     882     H        1          0.813778                              0.186222
     883     H        1          0.813778                              0.186222
     884     C        2          4.072511                             -0.072511
     885     C        2          4.072511                             -0.072511
     886     C        2          3.971480                              0.028520
     887     C        2          3.971481                              0.028519
     888     C        2          4.072509                             -0.072509
     889     C        2          4.072509                             -0.072509
     890     H        1          0.813781                              0.186219
     891     H        1          0.813781                              0.186219
     892     C        2          3.987731                              0.012269
     893     C        2          3.987731                              0.012269
     894     C        2          4.140250                             -0.140250
     895     C        2          4.140250                             -0.140250
     896     C        2          4.140249                             -0.140249
     897     C        2          4.140249                             -0.140249
     898     C        2          3.987729                              0.012271
     899     C        2          3.987729                              0.012271
     900     H        1          0.813778                              0.186222
     901     H        1          0.813778                              0.186222
     902     C        2          4.072510                             -0.072510
     903     C        2          4.072510                             -0.072510
     904     C        2          3.971481                              0.028519
     905     C        2          3.971478                              0.028522
     906     C        2          4.072510                             -0.072510
     907     C        2          4.072510                             -0.072510
     908     H        1          0.813782                              0.186218
     909     H        1          0.813782                              0.186218
     910     C        2          3.987730                              0.012270
     911     C        2          3.987730                              0.012270
     912     C        2          4.140252                             -0.140252
     913     C        2          4.140252                             -0.140252
     914     C        2          4.140249                             -0.140249
     915     C        2          4.140249                             -0.140249
     916     C        2          3.987731                              0.012269
     917     C        2          3.987731                              0.012269
     918     H        1          0.813778                              0.186222
     919     H        1          0.813778                              0.186222
     920     C        2          4.072510                             -0.072510
     921     C        2          4.072510                             -0.072510
     922     C        2          3.971483                              0.028517
     923     C        2          3.971478                              0.028522
     924     C        2          4.072513                             -0.072513
     925     C        2          4.072513                             -0.072513
     926     H        1          0.813783                              0.186217
     927     H        1          0.813783                              0.186217
     928     C        2          3.987728                              0.012272
     929     C        2          3.987728                              0.012272
     930     C        2          4.140255                             -0.140255
     931     C        2          4.140255                             -0.140255
     932     C        2          4.140249                             -0.140249
     933     C        2          4.140249                             -0.140249
     934     C        2          3.987732                              0.012268
     935     C        2          3.987732                              0.012268
     936     H        1          0.813779                              0.186221
     937     H        1          0.813779                              0.186221
     938     C        2          4.072510                             -0.072510
     939     C        2          4.072510                             -0.072510
     940     C        2          3.971487                              0.028513
     941     C        2          3.971479                              0.028521
     942     C        2          4.072514                             -0.072514
     943     C        2          4.072514                             -0.072514
     944     H        1          0.813786                              0.186214
     945     H        1          0.813786                              0.186214
     946     C        2          3.987727                              0.012273
     947     C        2          3.987727                              0.012273
     948     C        2          4.140256                             -0.140256
     949     C        2          4.140256                             -0.140256
     950     C        2          4.140250                             -0.140250
     951     C        2          4.140250                             -0.140250
     952     C        2          3.987730                              0.012270
     953     C        2          3.987730                              0.012270
     954     H        1          0.813779                              0.186221
     955     H        1          0.813779                              0.186221
     956     C        2          4.072512                             -0.072512
     957     C        2          4.072512                             -0.072512
     958     C        2          3.971490                              0.028510
     959     C        2          3.971483                              0.028517
     960     C        2          4.072516                             -0.072516
     961     C        2          4.072516                             -0.072516
     962     H        1          0.813789                              0.186211
     963     H        1          0.813789                              0.186211
     964     C        2          3.987727                              0.012273
     965     C        2          3.987727                              0.012273
     966     C        2          4.140260                             -0.140260
     967     C        2          4.140260                             -0.140260
     968     C        2          4.140254                             -0.140254
     969     C        2          4.140254                             -0.140254
     970     C        2          3.987728                              0.012272
     971     C        2          3.987728                              0.012272
     972     H        1          0.813779                              0.186221
     973     H        1          0.813779                              0.186221
     974     C        2          4.072516                             -0.072516
     975     C        2          4.072516                             -0.072516
     976     C        2          3.971488                              0.028512
     977     C        2          3.971484                              0.028516
     978     C        2          4.072517                             -0.072517
     979     C        2          4.072517                             -0.072517
     980     H        1          0.813792                              0.186208
     981     H        1          0.813792                              0.186208
     982     C        2          3.987730                              0.012270
     983     C        2          3.987730                              0.012270
     984     C        2          4.140266                             -0.140266
     985     C        2          4.140266                             -0.140266
     986     C        2          4.140258                             -0.140258
     987     C        2          4.140258                             -0.140258
     988     C        2          3.987726                              0.012274
     989     C        2          3.987726                              0.012274
     990     H        1          0.813779                              0.186221
     991     H        1          0.813779                              0.186221
     992     C        2          4.072516                             -0.072516
     993     C        2          4.072516                             -0.072516
     994     C        2          3.971487                              0.028513
     995     C        2          3.971483                              0.028517
     996     C        2          4.072515                             -0.072515
     997     C        2          4.072515                             -0.072515
     998     H        1          0.813798                              0.186202
     999     H        1          0.813798                              0.186202
    1000     C        2          3.987738                              0.012262
    1001     C        2          3.987738                              0.012262
    1002     C        2          4.140265                             -0.140265
    1003     C        2          4.140265                             -0.140265
    1004     C        2          4.140256                             -0.140256
    1005     C        2          4.140256                             -0.140256
    1006     C        2          3.987730                              0.012270
    1007     C        2          3.987730                              0.012270
    1008     H        1          0.813782                              0.186218
    1009     H        1          0.813782                              0.186218
    1010     C        2          4.072516                             -0.072516
    1011     C        2          4.072516                             -0.072516
    1012     C        2          3.971494                              0.028506
    1013     C        2          3.971490                              0.028510
    1014     C        2          4.072511                             -0.072511
    1015     C        2          4.072511                             -0.072511
    1016     H        1          0.813798                              0.186202
    1017     H        1          0.813798                              0.186202
    1018     C        2          3.987735                              0.012265
    1019     C        2          3.987735                              0.012265
    1020     C        2          4.140300                             -0.140300
    1021     C        2          4.140300                             -0.140300
    1022     C        2          4.140281                             -0.140281
    1023     C        2          4.140281                             -0.140281
    1024     C        2          3.987727                              0.012273
    1025     C        2          3.987727                              0.012273
    1026     H        1          0.813775                              0.186225
    1027     H        1          0.813775                              0.186225
    1028     C        2          4.072538                             -0.072538
    1029     C        2          4.072538                             -0.072538
    1030     C        2          3.971473                              0.028527
    1031     C        2          3.971444                              0.028556
    1032     C        2          4.072526                             -0.072526
    1033     C        2          4.072526                             -0.072526
    1034     H        1          0.813795                              0.186205
    1035     H        1          0.813795                              0.186205
    1036     C        2          3.987727                              0.012273
    1037     C        2          3.987727                              0.012273
    1038     C        2          4.140336                             -0.140336
    1039     C        2          4.140336                             -0.140336
    1040     C        2          4.140272                             -0.140272
    1041     C        2          4.140272                             -0.140272
    1042     C        2          3.987699                              0.012301
    1043     C        2          3.987699                              0.012301
    1044     H        1          0.813804                              0.186196
    1045     H        1          0.813804                              0.186196
    1046     C        2          4.072514                             -0.072514
    1047     C        2          4.072514                             -0.072514
    1048     C        2          3.971482                              0.028518
    1049     C        2          3.971407                              0.028593
    1050     C        2          4.072504                             -0.072504
    1051     C        2          4.072504                             -0.072504
    1052     H        1          0.813813                              0.186187
    1053     H        1          0.813813                              0.186187
    1054     C        2          3.987752                              0.012248
    1055     C        2          3.987752                              0.012248
    1056     C        2          4.140241                             -0.140241
    1057     C        2          4.140241                             -0.140241
    1058     C        2          4.140201                             -0.140201
    1059     C        2          4.140201                             -0.140201
    1060     C        2          3.987750                              0.012250
    1061     C        2          3.987750                              0.012250
    1062     H        1          0.813813                              0.186187
    1063     H        1          0.813813                              0.186187
    1064     C        2          4.072444                             -0.072444
    1065     C        2          4.072444                             -0.072444
    1066     C        2          3.971615                              0.028385
    1067     C        2          3.971594                              0.028406
    1068     C        2          4.072450                             -0.072450
    1069     C        2          4.072450                             -0.072450
    1070     H        1          0.813744                              0.186256
    1071     H        1          0.813744                              0.186256
    1072     C        2          3.987644                              0.012356
    1073     C        2          3.987644                              0.012356
    1074     C        2          4.140509                             -0.140509
    1075     C        2          4.140509                             -0.140509
    1076     C        2          4.140357                             -0.140357
    1077     C        2          4.140357                             -0.140357
    1078     C        2          3.987675                              0.012325
    1079     C        2          3.987675                              0.012325
    1080     H        1          0.813596                              0.186404
    1081     H        1          0.813596                              0.186404
    1082     C        2          4.072554                             -0.072554
    1083     C        2          4.072554                             -0.072554
    1084     C        2          3.971223                              0.028777
    1085     C        2          3.970995                              0.029005
    1086     C        2          4.072730                             -0.072730
    1087     C        2          4.072730                             -0.072730
    1088     H        1          0.813692                              0.186308
    1089     H        1          0.813692                              0.186308
    1090     C        2          3.987408                              0.012592
    1091     C        2          3.987408                              0.012592
    1092     C        2          4.140394                             -0.140394
    1093     C        2          4.140394                             -0.140394
    1094     C        2          4.139961                             -0.139961
    1095     C        2          4.139961                             -0.139961
    1096     C        2          3.987171                              0.012829
    1097     C        2          3.987171                              0.012829
    1098     H        1          0.813593                              0.186407
    1099     H        1          0.813593                              0.186407
    1100     C        2          4.071425                             -0.071425
    1101     C        2          4.071425                             -0.071425
    1102     C        2          3.971096                              0.028904
    1103     C        2          3.970118                              0.029882
    1104     C        2          4.072149                             -0.072149
    1105     C        2          4.072149                             -0.072149
    1106     H        1          0.813847                              0.186153
    1107     H        1          0.813847                              0.186153
    1108     C        2          3.986677                              0.013323
    1109     C        2          3.986677                              0.013323
    1110     C        2          4.139061                             -0.139061
    1111     C        2          4.139061                             -0.139061
    1112     C        2          4.138918                             -0.138918
    1113     C        2          4.138918                             -0.138918
    1114     C        2          3.986401                              0.013599
    1115     C        2          3.986401                              0.013599
    1116     H        1          0.812191                              0.187809
    1117     H        1          0.812191                              0.187809
    1118     C        2          4.067957                             -0.067957
    1119     C        2          4.067957                             -0.067957
    1120     C        2          3.971326                              0.028674
    1121     C        2          3.969965                              0.030035
    1122     C        2          4.069958                             -0.069958
    1123     C        2          4.069958                             -0.069958
    1124     H        1          0.813099                              0.186901
    1125     H        1          0.813099                              0.186901
    1126     C        2          3.982257                              0.017743
    1127     C        2          3.982257                              0.017743
    1128     C        2          4.144596                             -0.144596
    1129     C        2          4.144596                             -0.144596
    1130     C        2          4.139299                             -0.139299
    1131     C        2          4.139299                             -0.139299
    1132     C        2          3.981006                              0.018994
    1133     C        2          3.981006                              0.018994
    1134     H        1          0.802201                              0.197799
    1135     H        1          0.802201                              0.197799
    1136     C        2          4.064102                             -0.064102
    1137     C        2          4.064102                             -0.064102
    1138     C        2          3.962004                              0.037996
    1139     C        2          3.952251                              0.047749
    1140     C        2          4.091179                             -0.091179
    1141     C        2          4.091179                             -0.091179
    1142     H        1          0.808357                              0.191643
    1143     H        1          0.808357                              0.191643
    1144     C        2          3.962749                              0.037251
    1145     C        2          3.962749                              0.037251
    1146     C        2          4.164513                             -0.164513
    1147     C        2          4.164513                             -0.164513
    1148     C        2          4.241114                             -0.241114
    1149     C        2          4.241114                             -0.241114
    1150     C        2          4.048741                             -0.048741
    1151     C        2          4.048741                             -0.048741
    1152     H        1          0.768607                              0.231393
    1153     H        1          0.768607                              0.231393
    1154     C        2          4.195478                             -0.195478
    1155     C        2          4.195478                             -0.195478
    1156     C        2          4.619458                             -0.619458
    1157     H        1          0.698145                              0.301855
    1158     H        1          0.698145                              0.301855
    1159     H        1          0.786775                              0.213225
    1160     H        1          0.786775                              0.213225
 # Total charge                           3848.000000                 -0.000000

 !-----------------------------------------------------------------------------!

 !-----------------------------------------------------------------------------!
                           Hirshfeld Charges

  #Atom  Element  Kind  Ref Charge     Population                    Net charge
      1       H      1       1.000          0.550                         0.450
      2       H      1       1.000          0.550                         0.450
      3       H      1       1.000          0.552                         0.448
      4       H      1       1.000          0.552                         0.448
      5       C      2       4.000          4.780                        -0.780
      6       C      2       4.000          4.469                        -0.469
      7       C      2       4.000          4.469                        -0.469
      8       H      1       1.000          0.551                         0.449
      9       H      1       1.000          0.551                         0.449
     10       C      2       4.000          4.005                        -0.005
     11       C      2       4.000          4.005                        -0.005
     12       C      2       4.000          4.443                        -0.443
     13       C      2       4.000          4.443                        -0.443
     14       C      2       4.000          4.457                        -0.457
     15       C      2       4.000          4.457                        -0.457
     16       C      2       4.000          4.006                        -0.006
     17       C      2       4.000          4.006                        -0.006
     18       H      1       1.000          0.555                         0.445
     19       H      1       1.000          0.555                         0.445
     20       C      2       4.000          4.000                         0.000
     21       C      2       4.000          4.000                         0.000
     22       C      2       4.000          3.994                         0.006
     23       C      2       4.000          4.004                        -0.004
     24       C      2       4.000          4.003                        -0.003
     25       C      2       4.000          4.003                        -0.003
     26       H      1       1.000          0.555                         0.445
     27       H      1       1.000          0.555                         0.445
     28       C      2       4.000          3.999                         0.001
     29       C      2       4.000          3.999                         0.001
     30       C      2       4.000          4.446                        -0.446
     31       C      2       4.000          4.446                        -0.446
     32       C      2       4.000          4.448                        -0.448
     33       C      2       4.000          4.448                        -0.448
     34       C      2       4.000          4.000                        -0.000
     35       C      2       4.000          4.000                        -0.000
     36       H      1       1.000          0.555                         0.445
     37       H      1       1.000          0.555                         0.445
     38       C      2       4.000          3.998                         0.002
     39       C      2       4.000          3.998                         0.002
     40       C      2       4.000          4.002                        -0.002
     41       C      2       4.000          4.003                        -0.003
     42       C      2       4.000          3.998                         0.002
     43       C      2       4.000          3.998                         0.002
     44       H      1       1.000          0.555                         0.445
     45       H      1       1.000          0.555                         0.445
     46       C      2       4.000          4.000                        -0.000
     47       C      2       4.000          4.000                        -0.000
     48       C      2       4.000          4.444                        -0.444
     49       C      2       4.000          4.444                        -0.444
     50       C      2       4.000          4.445                        -0.445
     51       C      2       4.000          4.445                        -0.445
     52       C      2       4.000          4.000                         0.000
     53       C      2       4.000          4.000                         0.000
     54       H      1       1.000          0.555                         0.445
     55       H      1       1.000          0.555                         0.445
     56       C      2       4.000          3.998                         0.002
     57       C      2       4.000          3.998                         0.002
     58       C      2       4.000          4.000                        -0.000
     59       C      2       4.000          4.000                        -0.000
     60       C      2       4.000          3.998                         0.002
     61       C      2       4.000          3.998                         0.002
     62       H      1       1.000          0.555                         0.445
     63       H      1       1.000          0.555                         0.445
     64       C      2       4.000          3.999                         0.001
     65       C      2       4.000          3.999                         0.001
     66       C      2       4.000          4.445                        -0.445
     67       C      2       4.000          4.445                        -0.445
     68       C      2       4.000          4.445                        -0.445
     69       C      2       4.000          4.445                        -0.445
     70       C      2       4.000          3.999                         0.001
     71       C      2       4.000          3.999                         0.001
     72       H      1       1.000          0.555                         0.445
     73       H      1       1.000          0.555                         0.445
     74       C      2       4.000          3.999                         0.001
     75       C      2       4.000          3.999                         0.001
     76       C      2       4.000          4.000                         0.000
     77       C      2       4.000          4.000                        -0.000
     78       C      2       4.000          3.999                         0.001
     79       C      2       4.000          3.999                         0.001
     80       H      1       1.000          0.555                         0.445
     81       H      1       1.000          0.555                         0.445
     82       C      2       4.000          4.000                         0.000
     83       C      2       4.000          4.000                         0.000
     84       C      2       4.000          4.445                        -0.445
     85       C      2       4.000          4.445                        -0.445
     86       C      2       4.000          4.445                        -0.445
     87       C      2       4.000          4.445                        -0.445
     88       C      2       4.000          4.000                         0.000
     89       C      2       4.000          4.000                         0.000
     90       H      1       1.000          0.555                         0.445
     91       H      1       1.000          0.555                         0.445
     92       C      2       4.000          3.998                         0.002
     93       C      2       4.000          3.998                         0.002
     94       C      2       4.000          4.000                        -0.000
     95       C      2       4.000          4.000                        -0.000
     96       C      2       4.000          3.998                         0.002
     97       C      2       4.000          3.998                         0.002
     98       H      1       1.000          0.555                         0.445
     99       H      1       1.000          0.555                         0.445
    100       C      2       4.000          4.000                         0.000
    101       C      2       4.000          4.000                         0.000
    102       C      2       4.000          4.445                        -0.445
    103       C      2       4.000          4.445                        -0.445
    104       C      2       4.000          4.445                        -0.445
    105       C      2       4.000          4.445                        -0.445
    106       C      2       4.000          4.000                         0.000
    107       C      2       4.000          4.000                         0.000
    108       H      1       1.000          0.555                         0.445
    109       H      1       1.000          0.555                         0.445
    110       C      2       4.000          3.998                         0.002
    111       C      2       4.000          3.998                         0.002
    112       C      2       4.000          4.000                         0.000
    113       C      2       4.000          4.000                        -0.000
    114       C      2       4.000          3.998                         0.002
    115       C      2       4.000          3.998                         0.002
    116       H      1       1.000          0.555                         0.445
    117       H      1       1.000          0.555                         0.445
    118       C      2       4.000          4.000                         0.000
    119       C      2       4.000          4.000                         0.000
    120       C      2       4.000          4.445                        -0.445
    121       C      2       4.000          4.445                        -0.445
    122       C      2       4.000          4.445                        -0.445
    123       C      2       4.000          4.445                        -0.445
    124       C      2       4.000          4.000                         0.000
    125       C      2       4.000          4.000                         0.000
    126       H      1       1.000          0.555                         0.445
    127       H      1       1.000          0.555                         0.445
    128       C      2       4.000          3.999                         0.001
    129       C      2       4.000          3.999                         0.001
    130       C      2       4.000          4.000                         0.000
    131       C      2       4.000          4.000                        -0.000
    132       C      2       4.000          3.998                         0.002
    133       C      2       4.000          3.998                         0.002
    134       H      1       1.000          0.555                         0.445
    135       H      1       1.000          0.555                         0.445
    136       C      2       4.000          4.000                         0.000
    137       C      2       4.000          4.000                         0.000
    138       C      2       4.000          4.445                        -0.445
    139       C      2       4.000          4.445                        -0.445
    140       C      2       4.000          4.445                        -0.445
    141       C      2       4.000          4.445                        -0.445
    142       C      2       4.000          4.000                         0.000
    143       C      2       4.000          4.000                         0.000
    144       H      1       1.000          0.555                         0.445
    145       H      1       1.000          0.555                         0.445
    146       C      2       4.000          3.998                         0.002
    147       C      2       4.000          3.998                         0.002
    148       C      2       4.000          4.000                        -0.000
    149       C      2       4.000          4.000                        -0.000
    150       C      2       4.000          3.998                         0.002
    151       C      2       4.000          3.998                         0.002
    152       H      1       1.000          0.555                         0.445
    153       H      1       1.000          0.555                         0.445
    154       C      2       4.000          4.000                         0.000
    155       C      2       4.000          4.000                         0.000
    156       C      2       4.000          4.445                        -0.445
    157       C      2       4.000          4.445                        -0.445
    158       C      2       4.000          4.445                        -0.445
    159       C      2       4.000          4.445                        -0.445
    160       C      2       4.000          4.000                         0.000
    161       C      2       4.000          4.000                         0.000
    162       H      1       1.000          0.555                         0.445
    163       H      1       1.000          0.555                         0.445
    164       C      2       4.000          3.998                         0.002
    165       C      2       4.000          3.998                         0.002
    166       C      2       4.000          4.000                         0.000
    167       C      2       4.000          4.000                        -0.000
    168       C      2       4.000          3.998                         0.002
    169       C      2       4.000          3.998                         0.002
    170       H      1       1.000          0.555                         0.445
    171       H      1       1.000          0.555                         0.445
    172       C      2       4.000          4.000                         0.000
    173       C      2       4.000          4.000                         0.000
    174       C      2       4.000          4.445                        -0.445
    175       C      2       4.000          4.445                        -0.445
    176       C      2       4.000          4.445                        -0.445
    177       C      2       4.000          4.445                        -0.445
    178       C      2       4.000          4.000                         0.000
    179       C      2       4.000          4.000                         0.000
    180       H      1       1.000          0.555                         0.445
    181       H      1       1.000          0.555                         0.445
    182       C      2       4.000          3.998                         0.002
    183       C      2       4.000          3.998                         0.002
    184       C      2       4.000          4.000                         0.000
    185       C      2       4.000          4.000                        -0.000
    186       C      2       4.000          3.998                         0.002
    187       C      2       4.000          3.998                         0.002
    188       H      1       1.000          0.555                         0.445
    189       H      1       1.000          0.555                         0.445
    190       C      2       4.000          4.000                         0.000
    191       C      2       4.000          4.000                         0.000
    192       C      2       4.000          4.445                        -0.445
    193       C      2       4.000          4.445                        -0.445
    194       C      2       4.000          4.445                        -0.445
    195       C      2       4.000          4.445                        -0.445
    196       C      2       4.000          4.000                         0.000
    197       C      2       4.000          4.000                         0.000
    198       H      1       1.000          0.555                         0.445
    199       H      1       1.000          0.555                         0.445
    200       C      2       4.000          3.998                         0.002
    201       C      2       4.000          3.998                         0.002
    202       C      2       4.000          4.000                        -0.000
    203       C      2       4.000          4.000                        -0.000
    204       C      2       4.000          3.998                         0.002
    205       C      2       4.000          3.998                         0.002
    206       H      1       1.000          0.555                         0.445
    207       H      1       1.000          0.555                         0.445
    208       C      2       4.000          4.000                         0.000
    209       C      2       4.000          4.000                         0.000
    210       C      2       4.000          4.445                        -0.445
    211       C      2       4.000          4.445                        -0.445
    212       C      2       4.000          4.445                        -0.445
    213       C      2       4.000          4.445                        -0.445
    214       C      2       4.000          4.000                         0.000
    215       C      2       4.000          4.000                         0.000
    216       H      1       1.000          0.555                         0.445
    217       H      1       1.000          0.555                         0.445
    218       C      2       4.000          3.998                         0.002
    219       C      2       4.000          3.998                         0.002
    220       C      2       4.000          4.000                        -0.000
    221       C      2       4.000          4.000                        -0.000
    222       C      2       4.000          3.998                         0.002
    223       C      2       4.000          3.998                         0.002
    224       H      1       1.000          0.555                         0.445
    225       H      1       1.000          0.555                         0.445
    226       C      2       4.000          4.000                         0.000
    227       C      2       4.000          4.000                         0.000
    228       C      2       4.000          4.445                        -0.445
    229       C      2       4.000          4.445                        -0.445
    230       C      2       4.000          4.445                        -0.445
    231       C      2       4.000          4.445                        -0.445
    232       C      2       4.000          4.000                         0.000
    233       C      2       4.000          4.000                         0.000
    234       H      1       1.000          0.555                         0.445
    235       H      1       1.000          0.555                         0.445
    236       C      2       4.000          3.998                         0.002
    237       C      2       4.000          3.998                         0.002
    238       C      2       4.000          4.000                        -0.000
    239       C      2       4.000          4.000                        -0.000
    240       C      2       4.000          3.998                         0.002
    241       C      2       4.000          3.998                         0.002
    242       H      1       1.000          0.555                         0.445
    243       H      1       1.000          0.555                         0.445
    244       C      2       4.000          4.000                         0.000
    245       C      2       4.000          4.000                         0.000
    246       C      2       4.000          4.445                        -0.445
    247       C      2       4.000          4.445                        -0.445
    248       C      2       4.000          4.445                        -0.445
    249       C      2       4.000          4.445                        -0.445
    250       C      2       4.000          4.000                         0.000
    251       C      2       4.000          4.000                         0.000
    252       H      1       1.000          0.555                         0.445
    253       H      1       1.000          0.555                         0.445
    254       C      2       4.000          3.998                         0.002
    255       C      2       4.000          3.998                         0.002
    256       C      2       4.000          4.000                        -0.000
    257       C      2       4.000          4.000                        -0.000
    258       C      2       4.000          3.998                         0.002
    259       C      2       4.000          3.998                         0.002
    260       H      1       1.000          0.555                         0.445
    261       H      1       1.000          0.555                         0.445
    262       C      2       4.000          4.000                         0.000
    263       C      2       4.000          4.000                         0.000
    264       C      2       4.000          4.445                        -0.445
    265       C      2       4.000          4.445                        -0.445
    266       C      2       4.000          4.445                        -0.445
    267       C      2       4.000          4.445                        -0.445
    268       C      2       4.000          4.000                         0.000
    269       C      2       4.000          4.000                         0.000
    270       H      1       1.000          0.555                         0.445
    271       H      1       1.000          0.555                         0.445
    272       C      2       4.000          3.998                         0.002
    273       C      2       4.000          3.998                         0.002
    274       C      2       4.000          4.000                        -0.000
    275       C      2       4.000          4.000                        -0.000
    276       C      2       4.000          3.998                         0.002
    277       C      2       4.000          3.998                         0.002
    278       H      1       1.000          0.555                         0.445
    279       H      1       1.000          0.555                         0.445
    280       C      2       4.000          4.000                         0.000
    281       C      2       4.000          4.000                         0.000
    282       C      2       4.000          4.445                        -0.445
    283       C      2       4.000          4.445                        -0.445
    284       C      2       4.000          4.445                        -0.445
    285       C      2       4.000          4.445                        -0.445
    286       C      2       4.000          4.000                         0.000
    287       C      2       4.000          4.000                         0.000
    288       H      1       1.000          0.555                         0.445
    289       H      1       1.000          0.555                         0.445
    290       C      2       4.000          3.998                         0.002
    291       C      2       4.000          3.998                         0.002
    292       C      2       4.000          4.000                        -0.000
    293       C      2       4.000          4.000                        -0.000
    294       C      2       4.000          3.998                         0.002
    295       C      2       4.000          3.998                         0.002
    296       H      1       1.000          0.555                         0.445
    297       H      1       1.000          0.555                         0.445
    298       C      2       4.000          4.000                         0.000
    299       C      2       4.000          4.000                         0.000
    300       C      2       4.000          4.445                        -0.445
    301       C      2       4.000          4.445                        -0.445
    302       C      2       4.000          4.445                        -0.445
    303       C      2       4.000          4.445                        -0.445
    304       C      2       4.000          4.000                         0.000
    305       C      2       4.000          4.000                         0.000
    306       H      1       1.000          0.555                         0.445
    307       H      1       1.000          0.555                         0.445
    308       C      2       4.000          3.998                         0.002
    309       C      2       4.000          3.998                         0.002
    310       C      2       4.000          4.000                        -0.000
    311       C      2       4.000          4.000                        -0.000
    312       C      2       4.000          3.998                         0.002
    313       C      2       4.000          3.998                         0.002
    314       H      1       1.000          0.555                         0.445
    315       H      1       1.000          0.555                         0.445
    316       C      2       4.000          4.000                         0.000
    317       C      2       4.000          4.000                         0.000
    318       C      2       4.000          4.445                        -0.445
    319       C      2       4.000          4.445                        -0.445
    320       C      2       4.000          4.445                        -0.445
    321       C      2       4.000          4.445                        -0.445
    322       C      2       4.000          4.000                         0.000
    323       C      2       4.000          4.000                         0.000
    324       H      1       1.000          0.555                         0.445
    325       H      1       1.000          0.555                         0.445
    326       C      2       4.000          3.998                         0.002
    327       C      2       4.000          3.998                         0.002
    328       C      2       4.000          4.000                        -0.000
    329       C      2       4.000          4.000                        -0.000
    330       C      2       4.000          3.998                         0.002
    331       C      2       4.000          3.998                         0.002
    332       H      1       1.000          0.555                         0.445
    333       H      1       1.000          0.555                         0.445
    334       C      2       4.000          4.000                         0.000
    335       C      2       4.000          4.000                         0.000
    336       C      2       4.000          4.445                        -0.445
    337       C      2       4.000          4.445                        -0.445
    338       C      2       4.000          4.445                        -0.445
    339       C      2       4.000          4.445                        -0.445
    340       C      2       4.000          4.000                         0.000
    341       C      2       4.000          4.000                         0.000
    342       H      1       1.000          0.555                         0.445
    343       H      1       1.000          0.555                         0.445
    344       C      2       4.000          3.998                         0.002
    345       C      2       4.000          3.998                         0.002
    346       C      2       4.000          4.000                        -0.000
    347       C      2       4.000          4.000                        -0.000
    348       C      2       4.000          3.998                         0.002
    349       C      2       4.000          3.998                         0.002
    350       H      1       1.000          0.555                         0.445
    351       H      1       1.000          0.555                         0.445
    352       C      2       4.000          4.000                         0.000
    353       C      2       4.000          4.000                         0.000
    354       C      2       4.000          4.445                        -0.445
    355       C      2       4.000          4.445                        -0.445
    356       C      2       4.000          4.445                        -0.445
    357       C      2       4.000          4.445                        -0.445
    358       C      2       4.000          4.000                         0.000
    359       C      2       4.000          4.000                         0.000
    360       H      1       1.000          0.555                         0.445
    361       H      1       1.000          0.555                         0.445
    362       C      2       4.000          3.998                         0.002
    363       C      2       4.000          3.998                         0.002
    364       C      2       4.000          4.000                        -0.000
    365       C      2       4.000          4.000                        -0.000
    366       C      2       4.000          3.998                         0.002
    367       C      2       4.000          3.998                         0.002
    368       H      1       1.000          0.555                         0.445
    369       H      1       1.000          0.555                         0.445
    370       C      2       4.000          4.000                         0.000
    371       C      2       4.000          4.000                         0.000
    372       C      2       4.000          4.445                        -0.445
    373       C      2       4.000          4.445                        -0.445
    374       C      2       4.000          4.445                        -0.445
    375       C      2       4.000          4.445                        -0.445
    376       C      2       4.000          4.000                         0.000
    377       C      2       4.000          4.000                         0.000
    378       H      1       1.000          0.555                         0.445
    379       H      1       1.000          0.555                         0.445
    380       C      2       4.000          3.998                         0.002
    381       C      2       4.000          3.998                         0.002
    382       C      2       4.000          4.000                        -0.000
    383       C      2       4.000          4.000                        -0.000
    384       C      2       4.000          3.998                         0.002
    385       C      2       4.000          3.998                         0.002
    386       H      1       1.000          0.555                         0.445
    387       H      1       1.000          0.555                         0.445
    388       C      2       4.000          4.000                         0.000
    389       C      2       4.000          4.000                         0.000
    390       C      2       4.000          4.445                        -0.445
    391       C      2       4.000          4.445                        -0.445
    392       C      2       4.000          4.445                        -0.445
    393       C      2       4.000          4.445                        -0.445
    394       C      2       4.000          4.000                         0.000
    395       C      2       4.000          4.000                         0.000
    396       H      1       1.000          0.555                         0.445
    397       H      1       1.000          0.555                         0.445
    398       C      2       4.000          3.998                         0.002
    399       C      2       4.000          3.998                         0.002
    400       C      2       4.000          4.000                        -0.000
    401       C      2       4.000          4.000                        -0.000
    402       C      2       4.000          3.998                         0.002
    403       C      2       4.000          3.998                         0.002
    404       H      1       1.000          0.555                         0.445
    405       H      1       1.000          0.555                         0.445
    406       C      2       4.000          4.000                         0.000
    407       C      2       4.000          4.000                         0.000
    408       C      2       4.000          4.445                        -0.445
    409       C      2       4.000          4.445                        -0.445
    410       C      2       4.000          4.445                        -0.445
    411       C      2       4.000          4.445                        -0.445
    412       C      2       4.000          4.000                         0.000
    413       C      2       4.000          4.000                         0.000
    414       H      1       1.000          0.555                         0.445
    415       H      1       1.000          0.555                         0.445
    416       C      2       4.000          3.998                         0.002
    417       C      2       4.000          3.998                         0.002
    418       C      2       4.000          4.000                        -0.000
    419       C      2       4.000          4.000                        -0.000
    420       C      2       4.000          3.998                         0.002
    421       C      2       4.000          3.998                         0.002
    422       H      1       1.000          0.555                         0.445
    423       H      1       1.000          0.555                         0.445
    424       C      2       4.000          4.000                         0.000
    425       C      2       4.000          4.000                         0.000
    426       C      2       4.000          4.445                        -0.445
    427       C      2       4.000          4.445                        -0.445
    428       C      2       4.000          4.445                        -0.445
    429       C      2       4.000          4.445                        -0.445
    430       C      2       4.000          4.000                         0.000
    431       C      2       4.000          4.000                         0.000
    432       H      1       1.000          0.555                         0.445
    433       H      1       1.000          0.555                         0.445
    434       C      2       4.000          3.998                         0.002
    435       C      2       4.000          3.998                         0.002
    436       C      2       4.000          4.000                        -0.000
    437       C      2       4.000          4.000                        -0.000
    438       C      2       4.000          3.998                         0.002
    439       C      2       4.000          3.998                         0.002
    440       H      1       1.000          0.555                         0.445
    441       H      1       1.000          0.555                         0.445
    442       C      2       4.000          4.000                         0.000
    443       C      2       4.000          4.000                         0.000
    444       C      2       4.000          4.445                        -0.445
    445       C      2       4.000          4.445                        -0.445
    446       C      2       4.000          4.445                        -0.445
    447       C      2       4.000          4.445                        -0.445
    448       C      2       4.000          4.000                         0.000
    449       C      2       4.000          4.000                         0.000
    450       H      1       1.000          0.555                         0.445
    451       H      1       1.000          0.555                         0.445
    452       C      2       4.000          3.998                         0.002
    453       C      2       4.000          3.998                         0.002
    454       C      2       4.000          4.000                        -0.000
    455       C      2       4.000          4.000                        -0.000
    456       C      2       4.000          3.998                         0.002
    457       C      2       4.000          3.998                         0.002
    458       H      1       1.000          0.555                         0.445
    459       H      1       1.000          0.555                         0.445
    460       C      2       4.000          4.000                         0.000
    461       C      2       4.000          4.000                         0.000
    462       C      2       4.000          4.445                        -0.445
    463       C      2       4.000          4.445                        -0.445
    464       C      2       4.000          4.445                        -0.445
    465       C      2       4.000          4.445                        -0.445
    466       C      2       4.000          4.000                         0.000
    467       C      2       4.000          4.000                         0.000
    468       H      1       1.000          0.555                         0.445
    469       H      1       1.000          0.555                         0.445
    470       C      2       4.000          3.998                         0.002
    471       C      2       4.000          3.998                         0.002
    472       C      2       4.000          4.000                        -0.000
    473       C      2       4.000          4.000                        -0.000
    474       C      2       4.000          3.998                         0.002
    475       C      2       4.000          3.998                         0.002
    476       H      1       1.000          0.555                         0.445
    477       H      1       1.000          0.555                         0.445
    478       C      2       4.000          4.000                         0.000
    479       C      2       4.000          4.000                         0.000
    480       C      2       4.000          4.445                        -0.445
    481       C      2       4.000          4.445                        -0.445
    482       C      2       4.000          4.445                        -0.445
    483       C      2       4.000          4.445                        -0.445
    484       C      2       4.000          4.000                         0.000
    485       C      2       4.000          4.000                         0.000
    486       H      1       1.000          0.555                         0.445
    487       H      1       1.000          0.555                         0.445
    488       C      2       4.000          3.998                         0.002
    489       C      2       4.000          3.998                         0.002
    490       C      2       4.000          4.000                        -0.000
    491       C      2       4.000          4.000                        -0.000
    492       C      2       4.000          3.998                         0.002
    493       C      2       4.000          3.998                         0.002
    494       H      1       1.000          0.555                         0.445
    495       H      1       1.000          0.555                         0.445
    496       C      2       4.000          4.000                         0.000
    497       C      2       4.000          4.000                         0.000
    498       C      2       4.000          4.445                        -0.445
    499       C      2       4.000          4.445                        -0.445
    500       C      2       4.000          4.445                        -0.445
    501       C      2       4.000          4.445                        -0.445
    502       C      2       4.000          4.000                         0.000
    503       C      2       4.000          4.000                         0.000
    504       H      1       1.000          0.555                         0.445
    505       H      1       1.000          0.555                         0.445
    506       C      2       4.000          3.998                         0.002
    507       C      2       4.000          3.998                         0.002
    508       C      2       4.000          4.000                        -0.000
    509       C      2       4.000          4.000                        -0.000
    510       C      2       4.000          3.998                         0.002
    511       C      2       4.000          3.998                         0.002
    512       H      1       1.000          0.555                         0.445
    513       H      1       1.000          0.555                         0.445
    514       C      2       4.000          4.000                         0.000
    515       C      2       4.000          4.000                         0.000
    516       C      2       4.000          4.445                        -0.445
    517       C      2       4.000          4.445                        -0.445
    518       C      2       4.000          4.445                        -0.445
    519       C      2       4.000          4.445                        -0.445
    520       C      2       4.000          4.000                         0.000
    521       C      2       4.000          4.000                         0.000
    522       H      1       1.000          0.555                         0.445
    523       H      1       1.000          0.555                         0.445
    524       C      2       4.000          3.998                         0.002
    525       C      2       4.000          3.998                         0.002
    526       C      2       4.000          4.000                        -0.000
    527       C      2       4.000          4.000                        -0.000
    528       C      2       4.000          3.998                         0.002
    529       C      2       4.000          3.998                         0.002
    530       H      1       1.000          0.555                         0.445
    531       H      1       1.000          0.555                         0.445
    532       C      2       4.000          4.000                         0.000
    533       C      2       4.000          4.000                         0.000
    534       C      2       4.000          4.445                        -0.445
    535       C      2       4.000          4.445                        -0.445
    536       C      2       4.000          4.445                        -0.445
    537       C      2       4.000          4.445                        -0.445
    538       C      2       4.000          4.000                         0.000
    539       C      2       4.000          4.000                         0.000
    540       H      1       1.000          0.555                         0.445
    541       H      1       1.000          0.555                         0.445
    542       C      2       4.000          3.998                         0.002
    543       C      2       4.000          3.998                         0.002
    544       C      2       4.000          4.000                        -0.000
    545       C      2       4.000          4.000                        -0.000
    546       C      2       4.000          3.998                         0.002
    547       C      2       4.000          3.998                         0.002
    548       H      1       1.000          0.555                         0.445
    549       H      1       1.000          0.555                         0.445
    550       C      2       4.000          4.000                         0.000
    551       C      2       4.000          4.000                         0.000
    552       C      2       4.000          4.445                        -0.445
    553       C      2       4.000          4.445                        -0.445
    554       C      2       4.000          4.445                        -0.445
    555       C      2       4.000          4.445                        -0.445
    556       C      2       4.000          4.000                         0.000
    557       C      2       4.000          4.000                         0.000
    558       H      1       1.000          0.555                         0.445
    559       H      1       1.000          0.555                         0.445
    560       C      2       4.000          3.998                         0.002
    561       C      2       4.000          3.998                         0.002
    562       C      2       4.000          4.000                        -0.000
    563       C      2       4.000          4.000                        -0.000
    564       C      2       4.000          3.998                         0.002
    565       C      2       4.000          3.998                         0.002
    566       H      1       1.000          0.555                         0.445
    567       H      1       1.000          0.555                         0.445
    568       C      2       4.000          4.000                         0.000
    569       C      2       4.000          4.000                         0.000
    570       C      2       4.000          4.445                        -0.445
    571       C      2       4.000          4.445                        -0.445
    572       C      2       4.000          4.445                        -0.445
    573       C      2       4.000          4.445                        -0.445
    574       C      2       4.000          4.000                         0.000
    575       C      2       4.000          4.000                         0.000
    576       H      1       1.000          0.555                         0.445
    577       H      1       1.000          0.555                         0.445
    578       C      2       4.000          3.998                         0.002
    579       C      2       4.000          3.998                         0.002
    580       C      2       4.000          4.000                        -0.000
    581       C      2       4.000          4.000                        -0.000
    582       C      2       4.000          3.998                         0.002
    583       C      2       4.000          3.998                         0.002
    584       H      1       1.000          0.555                         0.445
    585       H      1       1.000          0.555                         0.445
    586       C      2       4.000          4.000                         0.000
    587       C      2       4.000          4.000                         0.000
    588       C      2       4.000          4.445                        -0.445
    589       C      2       4.000          4.445                        -0.445
    590       C      2       4.000          4.445                        -0.445
    591       C      2       4.000          4.445                        -0.445
    592       C      2       4.000          4.000                         0.000
    593       C      2       4.000          4.000                         0.000
    594       H      1       1.000          0.555                         0.445
    595       H      1       1.000          0.555                         0.445
    596       C      2       4.000          3.998                         0.002
    597       C      2       4.000          3.998                         0.002
    598       C      2       4.000          4.000                        -0.000
    599       C      2       4.000          4.000                        -0.000
    600       C      2       4.000          3.998                         0.002
    601       C      2       4.000          3.998                         0.002
    602       H      1       1.000          0.555                         0.445
    603       H      1       1.000          0.555                         0.445
    604       C      2       4.000          4.000                         0.000
    605       C      2       4.000          4.000                         0.000
    606       C      2       4.000          4.445                        -0.445
    607       C      2       4.000          4.445                        -0.445
    608       C      2       4.000          4.445                        -0.445
    609       C      2       4.000          4.445                        -0.445
    610       C      2       4.000          4.000                         0.000
    611       C      2       4.000          4.000                         0.000
    612       H      1       1.000          0.555                         0.445
    613       H      1       1.000          0.555                         0.445
    614       C      2       4.000          3.998                         0.002
    615       C      2       4.000          3.998                         0.002
    616       C      2       4.000          4.000                        -0.000
    617       C      2       4.000          4.000                        -0.000
    618       C      2       4.000          3.998                         0.002
    619       C      2       4.000          3.998                         0.002
    620       H      1       1.000          0.555                         0.445
    621       H      1       1.000          0.555                         0.445
    622       C      2       4.000          4.000                         0.000
    623       C      2       4.000          4.000                         0.000
    624       C      2       4.000          4.445                        -0.445
    625       C      2       4.000          4.445                        -0.445
    626       C      2       4.000          4.445                        -0.445
    627       C      2       4.000          4.445                        -0.445
    628       C      2       4.000          4.000                         0.000
    629       C      2       4.000          4.000                         0.000
    630       H      1       1.000          0.555                         0.445
    631       H      1       1.000          0.555                         0.445
    632       C      2       4.000          3.998                         0.002
    633       C      2       4.000          3.998                         0.002
    634       C      2       4.000          4.000                        -0.000
    635       C      2       4.000          4.000                        -0.000
    636       C      2       4.000          3.998                         0.002
    637       C      2       4.000          3.998                         0.002
    638       H      1       1.000          0.555                         0.445
    639       H      1       1.000          0.555                         0.445
    640       C      2       4.000          4.000                         0.000
    641       C      2       4.000          4.000                         0.000
    642       C      2       4.000          4.445                        -0.445
    643       C      2       4.000          4.445                        -0.445
    644       C      2       4.000          4.445                        -0.445
    645       C      2       4.000          4.445                        -0.445
    646       C      2       4.000          4.000                         0.000
    647       C      2       4.000          4.000                         0.000
    648       H      1       1.000          0.555                         0.445
    649       H      1       1.000          0.555                         0.445
    650       C      2       4.000          3.998                         0.002
    651       C      2       4.000          3.998                         0.002
    652       C      2       4.000          4.000                        -0.000
    653       C      2       4.000          4.000                        -0.000
    654       C      2       4.000          3.998                         0.002
    655       C      2       4.000          3.998                         0.002
    656       H      1       1.000          0.555                         0.445
    657       H      1       1.000          0.555                         0.445
    658       C      2       4.000          4.000                         0.000
    659       C      2       4.000          4.000                         0.000
    660       C      2       4.000          4.445                        -0.445
    661       C      2       4.000          4.445                        -0.445
    662       C      2       4.000          4.445                        -0.445
    663       C      2       4.000          4.445                        -0.445
    664       C      2       4.000          4.000                         0.000
    665       C      2       4.000          4.000                         0.000
    666       H      1       1.000          0.555                         0.445
    667       H      1       1.000          0.555                         0.445
    668       C      2       4.000          3.998                         0.002
    669       C      2       4.000          3.998                         0.002
    670       C      2       4.000          4.000                        -0.000
    671       C      2       4.000          4.000                        -0.000
    672       C      2       4.000          3.998                         0.002
    673       C      2       4.000          3.998                         0.002
    674       H      1       1.000          0.555                         0.445
    675       H      1       1.000          0.555                         0.445
    676       C      2       4.000          4.000                         0.000
    677       C      2       4.000          4.000                         0.000
    678       C      2       4.000          4.445                        -0.445
    679       C      2       4.000          4.445                        -0.445
    680       C      2       4.000          4.445                        -0.445
    681       C      2       4.000          4.445                        -0.445
    682       C      2       4.000          4.000                         0.000
    683       C      2       4.000          4.000                         0.000
    684       H      1       1.000          0.555                         0.445
    685       H      1       1.000          0.555                         0.445
    686       C      2       4.000          3.998                         0.002
    687       C      2       4.000          3.998                         0.002
    688       C      2       4.000          4.000                        -0.000
    689       C      2       4.000          4.000                        -0.000
    690       C      2       4.000          3.998                         0.002
    691       C      2       4.000          3.998                         0.002
    692       H      1       1.000          0.555                         0.445
    693       H      1       1.000          0.555                         0.445
    694       C      2       4.000          4.000                         0.000
    695       C      2       4.000          4.000                         0.000
    696       C      2       4.000          4.445                        -0.445
    697       C      2       4.000          4.445                        -0.445
    698       C      2       4.000          4.445                        -0.445
    699       C      2       4.000          4.445                        -0.445
    700       C      2       4.000          4.000                         0.000
    701       C      2       4.000          4.000                         0.000
    702       H      1       1.000          0.555                         0.445
    703       H      1       1.000          0.555                         0.445
    704       C      2       4.000          3.998                         0.002
    705       C      2       4.000          3.998                         0.002
    706       C      2       4.000          4.000                        -0.000
    707       C      2       4.000          4.000                        -0.000
    708       C      2       4.000          3.998                         0.002
    709       C      2       4.000          3.998                         0.002
    710       H      1       1.000          0.555                         0.445
    711       H      1       1.000          0.555                         0.445
    712       C      2       4.000          4.000                         0.000
    713       C      2       4.000          4.000                         0.000
    714       C      2       4.000          4.445                        -0.445
    715       C      2       4.000          4.445                        -0.445
    716       C      2       4.000          4.445                        -0.445
    717       C      2       4.000          4.445                        -0.445
    718       C      2       4.000          4.000                         0.000
    719       C      2       4.000          4.000                         0.000
    720       H      1       1.000          0.555                         0.445
    721       H      1       1.000          0.555                         0.445
    722       C      2       4.000          3.998                         0.002
    723       C      2       4.000          3.998                         0.002
    724       C      2       4.000          4.000                        -0.000
    725       C      2       4.000          4.000                        -0.000
    726       C      2       4.000          3.998                         0.002
    727       C      2       4.000          3.998                         0.002
    728       H      1       1.000          0.555                         0.445
    729       H      1       1.000          0.555                         0.445
    730       C      2       4.000          4.000                         0.000
    731       C      2       4.000          4.000                         0.000
    732       C      2       4.000          4.445                        -0.445
    733       C      2       4.000          4.445                        -0.445
    734       C      2       4.000          4.445                        -0.445
    735       C      2       4.000          4.445                        -0.445
    736       C      2       4.000          4.000                         0.000
    737       C      2       4.000          4.000                         0.000
    738       H      1       1.000          0.555                         0.445
    739       H      1       1.000          0.555                         0.445
    740       C      2       4.000          3.998                         0.002
    741       C      2       4.000          3.998                         0.002
    742       C      2       4.000          4.000                        -0.000
    743       C      2       4.000          4.000                        -0.000
    744       C      2       4.000          3.998                         0.002
    745       C      2       4.000          3.998                         0.002
    746       H      1       1.000          0.555                         0.445
    747       H      1       1.000          0.555                         0.445
    748       C      2       4.000          4.000                         0.000
    749       C      2       4.000          4.000                         0.000
    750       C      2       4.000          4.445                        -0.445
    751       C      2       4.000          4.445                        -0.445
    752       C      2       4.000          4.445                        -0.445
    753       C      2       4.000          4.445                        -0.445
    754       C      2       4.000          4.000                         0.000
    755       C      2       4.000          4.000                         0.000
    756       H      1       1.000          0.555                         0.445
    757       H      1       1.000          0.555                         0.445
    758       C      2       4.000          3.998                         0.002
    759       C      2       4.000          3.998                         0.002
    760       C      2       4.000          4.000                        -0.000
    761       C      2       4.000          4.000                        -0.000
    762       C      2       4.000          3.998                         0.002
    763       C      2       4.000          3.998                         0.002
    764       H      1       1.000          0.555                         0.445
    765       H      1       1.000          0.555                         0.445
    766       C      2       4.000          4.000                         0.000
    767       C      2       4.000          4.000                         0.000
    768       C      2       4.000          4.445                        -0.445
    769       C      2       4.000          4.445                        -0.445
    770       C      2       4.000          4.445                        -0.445
    771       C      2       4.000          4.445                        -0.445
    772       C      2       4.000          4.000                         0.000
    773       C      2       4.000          4.000                         0.000
    774       H      1       1.000          0.555                         0.445
    775       H      1       1.000          0.555                         0.445
    776       C      2       4.000          3.998                         0.002
    777       C      2       4.000          3.998                         0.002
    778       C      2       4.000          4.000                        -0.000
    779       C      2       4.000          4.000                        -0.000
    780       C      2       4.000          3.998                         0.002
    781       C      2       4.000          3.998                         0.002
    782       H      1       1.000          0.555                         0.445
    783       H      1       1.000          0.555                         0.445
    784       C      2       4.000          4.000                         0.000
    785       C      2       4.000          4.000                         0.000
    786       C      2       4.000          4.445                        -0.445
    787       C      2       4.000          4.445                        -0.445
    788       C      2       4.000          4.445                        -0.445
    789       C      2       4.000          4.445                        -0.445
    790       C      2       4.000          4.000                         0.000
    791       C      2       4.000          4.000                         0.000
    792       H      1       1.000          0.555                         0.445
    793       H      1       1.000          0.555                         0.445
    794       C      2       4.000          3.998                         0.002
    795       C      2       4.000          3.998                         0.002
    796       C      2       4.000          4.000                        -0.000
    797       C      2       4.000          4.000                        -0.000
    798       C      2       4.000          3.998                         0.002
    799       C      2       4.000          3.998                         0.002
    800       H      1       1.000          0.555                         0.445
    801       H      1       1.000          0.555                         0.445
    802       C      2       4.000          4.000                         0.000
    803       C      2       4.000          4.000                         0.000
    804       C      2       4.000          4.445                        -0.445
    805       C      2       4.000          4.445                        -0.445
    806       C      2       4.000          4.445                        -0.445
    807       C      2       4.000          4.445                        -0.445
    808       C      2       4.000          4.000                         0.000
    809       C      2       4.000          4.000                         0.000
    810       H      1       1.000          0.555                         0.445
    811       H      1       1.000          0.555                         0.445
    812       C      2       4.000          3.998                         0.002
    813       C      2       4.000          3.998                         0.002
    814       C      2       4.000          4.000                        -0.000
    815       C      2       4.000          4.000                        -0.000
    816       C      2       4.000          3.998                         0.002
    817       C      2       4.000          3.998                         0.002
    818       H      1       1.000          0.555                         0.445
    819       H      1       1.000          0.555                         0.445
    820       C      2       4.000          4.000                         0.000
    821       C      2       4.000          4.000                         0.000
    822       C      2       4.000          4.445                        -0.445
    823       C      2       4.000          4.445                        -0.445
    824       C      2       4.000          4.445                        -0.445
    825       C      2       4.000          4.445                        -0.445
    826       C      2       4.000          4.000                         0.000
    827       C      2       4.000          4.000                         0.000
    828       H      1       1.000          0.555                         0.445
    829       H      1       1.000          0.555                         0.445
    830       C      2       4.000          3.998                         0.002
    831       C      2       4.000          3.998                         0.002
    832       C      2       4.000          4.000                        -0.000
    833       C      2       4.000          4.000                        -0.000
    834       C      2       4.000          3.998                         0.002
    835       C      2       4.000          3.998                         0.002
    836       H      1       1.000          0.555                         0.445
    837       H      1       1.000          0.555                         0.445
    838       C      2       4.000          4.000                         0.000
    839       C      2       4.000          4.000                         0.000
    840       C      2       4.000          4.445                        -0.445
    841       C      2       4.000          4.445                        -0.445
    842       C      2       4.000          4.445                        -0.445
    843       C      2       4.000          4.445                        -0.445
    844       C      2       4.000          4.000                         0.000
    845       C      2       4.000          4.000                         0.000
    846       H      1       1.000          0.555                         0.445
    847       H      1       1.000          0.555                         0.445
    848       C      2       4.000          3.998                         0.002
    849       C      2       4.000          3.998                         0.002
    850       C      2       4.000          4.000                        -0.000
    851       C      2       4.000          4.000                        -0.000
    852       C      2       4.000          3.998                         0.002
    853       C      2       4.000          3.998                         0.002
    854       H      1       1.000          0.555                         0.445
    855       H      1       1.000          0.555                         0.445
    856       C      2       4.000          4.000                         0.000
    857       C      2       4.000          4.000                         0.000
    858       C      2       4.000          4.445                        -0.445
    859       C      2       4.000          4.445                        -0.445
    860       C      2       4.000          4.445                        -0.445
    861       C      2       4.000          4.445                        -0.445
    862       C      2       4.000          4.000                         0.000
    863       C      2       4.000          4.000                         0.000
    864       H      1       1.000          0.555                         0.445
    865       H      1       1.000          0.555                         0.445
    866       C      2       4.000          3.998                         0.002
    867       C      2       4.000          3.998                         0.002
    868       C      2       4.000          4.000                        -0.000
    869       C      2       4.000          4.000                        -0.000
    870       C      2       4.000          3.998                         0.002
    871       C      2       4.000          3.998                         0.002
    872       H      1       1.000          0.555                         0.445
    873       H      1       1.000          0.555                         0.445
    874       C      2       4.000          4.000                         0.000
    875       C      2       4.000          4.000                         0.000
    876       C      2       4.000          4.445                        -0.445
    877       C      2       4.000          4.445                        -0.445
    878       C      2       4.000          4.445                        -0.445
    879       C      2       4.000          4.445                        -0.445
    880       C      2       4.000          4.000                         0.000
    881       C      2       4.000          4.000                         0.000
    882       H      1       1.000          0.555                         0.445
    883       H      1       1.000          0.555                         0.445
    884       C      2       4.000          3.998                         0.002
    885       C      2       4.000          3.998                         0.002
    886       C      2       4.000          4.000                        -0.000
    887       C      2       4.000          4.000                        -0.000
    888       C      2       4.000          3.998                         0.002
    889       C      2       4.000          3.998                         0.002
    890       H      1       1.000          0.555                         0.445
    891       H      1       1.000          0.555                         0.445
    892       C      2       4.000          4.000                         0.000
    893       C      2       4.000          4.000                         0.000
    894       C      2       4.000          4.445                        -0.445
    895       C      2       4.000          4.445                        -0.445
    896       C      2       4.000          4.445                        -0.445
    897       C      2       4.000          4.445                        -0.445
    898       C      2       4.000          4.000                         0.000
    899       C      2       4.000          4.000                         0.000
    900       H      1       1.000          0.555                         0.445
    901       H      1       1.000          0.555                         0.445
    902       C      2       4.000          3.998                         0.002
    903       C      2       4.000          3.998                         0.002
    904       C      2       4.000          4.000                        -0.000
    905       C      2       4.000          4.000                        -0.000
    906       C      2       4.000          3.998                         0.002
    907       C      2       4.000          3.998                         0.002
    908       H      1       1.000          0.555                         0.445
    909       H      1       1.000          0.555                         0.445
    910       C      2       4.000          4.000                         0.000
    911       C      2       4.000          4.000                         0.000
    912       C      2       4.000          4.445                        -0.445
    913       C      2       4.000          4.445                        -0.445
    914       C      2       4.000          4.445                        -0.445
    915       C      2       4.000          4.445                        -0.445
    916       C      2       4.000          4.000                         0.000
    917       C      2       4.000          4.000                         0.000
    918       H      1       1.000          0.555                         0.445
    919       H      1       1.000          0.555                         0.445
    920       C      2       4.000          3.998                         0.002
    921       C      2       4.000          3.998                         0.002
    922       C      2       4.000          4.000                        -0.000
    923       C      2       4.000          4.000                        -0.000
    924       C      2       4.000          3.998                         0.002
    925       C      2       4.000          3.998                         0.002
    926       H      1       1.000          0.555                         0.445
    927       H      1       1.000          0.555                         0.445
    928       C      2       4.000          4.000                         0.000
    929       C      2       4.000          4.000                         0.000
    930       C      2       4.000          4.445                        -0.445
    931       C      2       4.000          4.445                        -0.445
    932       C      2       4.000          4.445                        -0.445
    933       C      2       4.000          4.445                        -0.445
    934       C      2       4.000          4.000                         0.000
    935       C      2       4.000          4.000                         0.000
    936       H      1       1.000          0.555                         0.445
    937       H      1       1.000          0.555                         0.445
    938       C      2       4.000          3.998                         0.002
    939       C      2       4.000          3.998                         0.002
    940       C      2       4.000          4.000                        -0.000
    941       C      2       4.000          4.000                        -0.000
    942       C      2       4.000          3.998                         0.002
    943       C      2       4.000          3.998                         0.002
    944       H      1       1.000          0.555                         0.445
    945       H      1       1.000          0.555                         0.445
    946       C      2       4.000          4.000                         0.000
    947       C      2       4.000          4.000                         0.000
    948       C      2       4.000          4.445                        -0.445
    949       C      2       4.000          4.445                        -0.445
    950       C      2       4.000          4.445                        -0.445
    951       C      2       4.000          4.445                        -0.445
    952       C      2       4.000          4.000                         0.000
    953       C      2       4.000          4.000                         0.000
    954       H      1       1.000          0.555                         0.445
    955       H      1       1.000          0.555                         0.445
    956       C      2       4.000          3.998                         0.002
    957       C      2       4.000          3.998                         0.002
    958       C      2       4.000          4.000                        -0.000
    959       C      2       4.000          4.000                        -0.000
    960       C      2       4.000          3.998                         0.002
    961       C      2       4.000          3.998                         0.002
    962       H      1       1.000          0.555                         0.445
    963       H      1       1.000          0.555                         0.445
    964       C      2       4.000          4.000                         0.000
    965       C      2       4.000          4.000                         0.000
    966       C      2       4.000          4.445                        -0.445
    967       C      2       4.000          4.445                        -0.445
    968       C      2       4.000          4.445                        -0.445
    969       C      2       4.000          4.445                        -0.445
    970       C      2       4.000          4.000                         0.000
    971       C      2       4.000          4.000                         0.000
    972       H      1       1.000          0.555                         0.445
    973       H      1       1.000          0.555                         0.445
    974       C      2       4.000          3.998                         0.002
    975       C      2       4.000          3.998                         0.002
    976       C      2       4.000          4.000                        -0.000
    977       C      2       4.000          4.000                         0.000
    978       C      2       4.000          3.998                         0.002
    979       C      2       4.000          3.998                         0.002
    980       H      1       1.000          0.555                         0.445
    981       H      1       1.000          0.555                         0.445
    982       C      2       4.000          4.000                         0.000
    983       C      2       4.000          4.000                         0.000
    984       C      2       4.000          4.445                        -0.445
    985       C      2       4.000          4.445                        -0.445
    986       C      2       4.000          4.445                        -0.445
    987       C      2       4.000          4.445                        -0.445
    988       C      2       4.000          4.000                         0.000
    989       C      2       4.000          4.000                         0.000
    990       H      1       1.000          0.555                         0.445
    991       H      1       1.000          0.555                         0.445
    992       C      2       4.000          3.998                         0.002
    993       C      2       4.000          3.998                         0.002
    994       C      2       4.000          4.000                        -0.000
    995       C      2       4.000          4.000                         0.000
    996       C      2       4.000          3.998                         0.002
    997       C      2       4.000          3.998                         0.002
    998       H      1       1.000          0.555                         0.445
    999       H      1       1.000          0.555                         0.445
   1000       C      2       4.000          4.000                         0.000
   1001       C      2       4.000          4.000                         0.000
   1002       C      2       4.000          4.445                        -0.445
   1003       C      2       4.000          4.445                        -0.445
   1004       C      2       4.000          4.445                        -0.445
   1005       C      2       4.000          4.445                        -0.445
   1006       C      2       4.000          4.000                         0.000
   1007       C      2       4.000          4.000                         0.000
   1008       H      1       1.000          0.555                         0.445
   1009       H      1       1.000          0.555                         0.445
   1010       C      2       4.000          3.998                         0.002
   1011       C      2       4.000          3.998                         0.002
   1012       C      2       4.000          4.000                        -0.000
   1013       C      2       4.000          4.000                        -0.000
   1014       C      2       4.000          3.998                         0.002
   1015       C      2       4.000          3.998                         0.002
   1016       H      1       1.000          0.555                         0.445
   1017       H      1       1.000          0.555                         0.445
   1018       C      2       4.000          4.000                         0.000
   1019       C      2       4.000          4.000                         0.000
   1020       C      2       4.000          4.445                        -0.445
   1021       C      2       4.000          4.445                        -0.445
   1022       C      2       4.000          4.445                        -0.445
   1023       C      2       4.000          4.445                        -0.445
   1024       C      2       4.000          4.000                         0.000
   1025       C      2       4.000          4.000                         0.000
   1026       H      1       1.000          0.555                         0.445
   1027       H      1       1.000          0.555                         0.445
   1028       C      2       4.000          3.998                         0.002
   1029       C      2       4.000          3.998                         0.002
   1030       C      2       4.000          4.000                        -0.000
   1031       C      2       4.000          4.000                         0.000
   1032       C      2       4.000          3.999                         0.001
   1033       C      2       4.000          3.999                         0.001
   1034       H      1       1.000          0.555                         0.445
   1035       H      1       1.000          0.555                         0.445
   1036       C      2       4.000          4.000                         0.000
   1037       C      2       4.000          4.000                         0.000
   1038       C      2       4.000          4.445                        -0.445
   1039       C      2       4.000          4.445                        -0.445
   1040       C      2       4.000          4.445                        -0.445
   1041       C      2       4.000          4.445                        -0.445
   1042       C      2       4.000          4.000                         0.000
   1043       C      2       4.000          4.000                         0.000
   1044       H      1       1.000          0.555                         0.445
   1045       H      1       1.000          0.555                         0.445
   1046       C      2       4.000          3.998                         0.002
   1047       C      2       4.000          3.998                         0.002
   1048       C      2       4.000          4.000                        -0.000
   1049       C      2       4.000          4.000                         0.000
   1050       C      2       4.000          3.998                         0.002
   1051       C      2       4.000          3.998                         0.002
   1052       H      1       1.000          0.555                         0.445
   1053       H      1       1.000          0.555                         0.445
   1054       C      2       4.000          4.000                         0.000
   1055       C      2       4.000          4.000                         0.000
   1056       C      2       4.000          4.445                        -0.445
   1057       C      2       4.000          4.445                        -0.445
   1058       C      2       4.000          4.445                        -0.445
   1059       C      2       4.000          4.445                        -0.445
   1060       C      2       4.000          4.000                         0.000
   1061       C      2       4.000          4.000                         0.000
   1062       H      1       1.000          0.555                         0.445
   1063       H      1       1.000          0.555                         0.445
   1064       C      2       4.000          3.998                         0.002
   1065       C      2       4.000          3.998                         0.002
   1066       C      2       4.000          4.000                        -0.000
   1067       C      2       4.000          4.000                        -0.000
   1068       C      2       4.000          3.998                         0.002
   1069       C      2       4.000          3.998                         0.002
   1070       H      1       1.000          0.555                         0.445
   1071       H      1       1.000          0.555                         0.445
   1072       C      2       4.000          4.000                         0.000
   1073       C      2       4.000          4.000                         0.000
   1074       C      2       4.000          4.445                        -0.445
   1075       C      2       4.000          4.445                        -0.445
   1076       C      2       4.000          4.445                        -0.445
   1077       C      2       4.000          4.445                        -0.445
   1078       C      2       4.000          4.000                         0.000
   1079       C      2       4.000          4.000                         0.000
   1080       H      1       1.000          0.555                         0.445
   1081       H      1       1.000          0.555                         0.445
   1082       C      2       4.000          3.999                         0.001
   1083       C      2       4.000          3.999                         0.001
   1084       C      2       4.000          4.000                        -0.000
   1085       C      2       4.000          4.000                         0.000
   1086       C      2       4.000          3.999                         0.001
   1087       C      2       4.000          3.999                         0.001
   1088       H      1       1.000          0.555                         0.445
   1089       H      1       1.000          0.555                         0.445
   1090       C      2       4.000          3.999                         0.001
   1091       C      2       4.000          3.999                         0.001
   1092       C      2       4.000          4.445                        -0.445
   1093       C      2       4.000          4.445                        -0.445
   1094       C      2       4.000          4.445                        -0.445
   1095       C      2       4.000          4.445                        -0.445
   1096       C      2       4.000          3.999                         0.001
   1097       C      2       4.000          3.999                         0.001
   1098       H      1       1.000          0.555                         0.445
   1099       H      1       1.000          0.555                         0.445
   1100       C      2       4.000          3.998                         0.002
   1101       C      2       4.000          3.998                         0.002
   1102       C      2       4.000          4.000                        -0.000
   1103       C      2       4.000          4.000                        -0.000
   1104       C      2       4.000          3.998                         0.002
   1105       C      2       4.000          3.998                         0.002
   1106       H      1       1.000          0.555                         0.445
   1107       H      1       1.000          0.555                         0.445
   1108       C      2       4.000          4.000                         0.000
   1109       C      2       4.000          4.000                         0.000
   1110       C      2       4.000          4.445                        -0.445
   1111       C      2       4.000          4.445                        -0.445
   1112       C      2       4.000          4.444                        -0.444
   1113       C      2       4.000          4.444                        -0.444
   1114       C      2       4.000          4.000                        -0.000
   1115       C      2       4.000          4.000                        -0.000
   1116       H      1       1.000          0.555                         0.445
   1117       H      1       1.000          0.555                         0.445
   1118       C      2       4.000          3.998                         0.002
   1119       C      2       4.000          3.998                         0.002
   1120       C      2       4.000          4.003                        -0.003
   1121       C      2       4.000          4.002                        -0.002
   1122       C      2       4.000          3.998                         0.002
   1123       C      2       4.000          3.998                         0.002
   1124       H      1       1.000          0.555                         0.445
   1125       H      1       1.000          0.555                         0.445
   1126       C      2       4.000          4.000                        -0.000
   1127       C      2       4.000          4.000                        -0.000
   1128       C      2       4.000          4.448                        -0.448
   1129       C      2       4.000          4.448                        -0.448
   1130       C      2       4.000          4.446                        -0.446
   1131       C      2       4.000          4.446                        -0.446
   1132       C      2       4.000          3.999                         0.001
   1133       C      2       4.000          3.999                         0.001
   1134       H      1       1.000          0.555                         0.445
   1135       H      1       1.000          0.555                         0.445
   1136       C      2       4.000          4.003                        -0.003
   1137       C      2       4.000          4.003                        -0.003
   1138       C      2       4.000          4.004                        -0.004
   1139       C      2       4.000          3.994                         0.006
   1140       C      2       4.000          4.000                         0.000
   1141       C      2       4.000          4.000                         0.000
   1142       H      1       1.000          0.555                         0.445
   1143       H      1       1.000          0.555                         0.445
   1144       C      2       4.000          4.006                        -0.006
   1145       C      2       4.000          4.006                        -0.006
   1146       C      2       4.000          4.457                        -0.457
   1147       C      2       4.000          4.457                        -0.457
   1148       C      2       4.000          4.443                        -0.443
   1149       C      2       4.000          4.443                        -0.443
   1150       C      2       4.000          4.005                        -0.005
   1151       C      2       4.000          4.005                        -0.005
   1152       H      1       1.000          0.551                         0.449
   1153       H      1       1.000          0.551                         0.449
   1154       C      2       4.000          4.469                        -0.469
   1155       C      2       4.000          4.469                        -0.469
   1156       C      2       4.000          4.780                        -0.780
   1157       H      1       1.000          0.552                         0.448
   1158       H      1       1.000          0.552                         0.448
   1159       H      1       1.000          0.550                         0.450
   1160       H      1       1.000          0.550                         0.450

  Total Charge                                                            0.620
 !-----------------------------------------------------------------------------!
  
 -------------------------------------------------------------------------------
 -                                                                             -
 -                          BANDSTRUCTURE CALCULATION                          -
 -                                                                             -
 -------------------------------------------------------------------------------
  
 Number of occupied molecular orbitals (MOs) = Number of occupied bands     1924
 Number of unoccupied (= virtual) MOs = Number of unoccupied bands         11308
 Number of Gaussian basis functions for MOs                                13232
  
 -------------------------------------------------------------------------------
 -                                                                             -
 -                                GW CALCULATION                               -
 -                                                                             -
 -------------------------------------------------------------------------------
  
 Input: Number of time/freq. points                                           30
 Input: ω_max for fitting Σ(iω) (eV)                                        10.0
 Input: Filter threshold for sparse tensor operations                    1.0E-10
 Input: Apply Hedin shift                                                      F
 Detected: Available memory per MPI process                             109.0 GB
 
 Input: RI-RS Tikhonov regularization                                   1.00E-08
 Input: AO grid hard cutoff radius                                        7.00 Å
 Input: MPI ranks per atom in Z_lP solve                                      -1
 Input: Keep sparsity in χ/G/W panels                                          T
 Input: GW flavour                                                          G0W0
 
 Input: RI-RS grid optimization activated                                      T
 Input: Element: H, number of points per atom:                                27
 Input: Element: C, number of points per atom:                                67
 Input: Cutoff radius for atomic clusters                                  3.0 Å
 Input: Maximum grid optimization iterations                                 200
 
 Cutoff radius for the truncated Coulomb operator in RI metric:            7.0 Å
 Regularization parameter of RI                                          0.0E+00
 Regularization parameter of minimax grids                               1.0E-06
  
 Number of auxiliary Gaussian basis functions for χ, ε, W                  28200
  Decoupling Energy:                                               0.0002357909
 
 SCF direct band gap (eV)                                                   1.52
 Max. SCF eigval diff. (eV)                                               247.07
 E-Range for minimax grid                                                 162.02
 Number of Padé parameters for analytic continuation:                         16
 
 RI-RS basis radii (Å):
     Kind  Elem     r_AO (Å)     r_RI (Å)
        1    H        11.3560        5.9118
        2    C         9.5975        5.7974
 
 Started RI-RS grid optimization
 RI-RS grid optimization completed, execution time:                     1118.3 s
 Normalized 3C error:                                                    1.6E-06
 Maximum absolute 3C error:                                              1.6E-02
 Total grid points used for RI-RS:                                         67160
 
 RI-RS grid row-blocks of Φ_μ(r_l)                                          2952
 RI-RS grid points per block (max)                                            32
 
 Percentage of non-zero matrix elements in Φ_μ(r_l)                       5.46 %
 
 RI-RS memory estimate per MPI process:
   Available memory per process (system)                               129.63 GB
   Required for Z_lP (dense upper bound; actual is sparser)              0.24 GB
   Required for χ, W, Σ panels (peak per panel step)                     2.26 GB
   Required for Z_lP solve peak (D_local+φ, worst-case atom)             0.43 GB
   Worst-case local-grid number of grid points:                             6086
   Worst-case memory D_local:                                            0.30 GB
 
 Started computing Z_lP
 Per-kind maximum RI-RS sphere cutoff (Å):
   Kind   cutoff (Å)
     H        12.9118
     C        12.7974
 
 Computed Z_lP (MPI rank 0) for atom          1 / 18,    Execution time    1.2 s
 Computed Z_lP (MPI rank 0) for atom          2 / 18,    Execution time    1.2 s
 Computed Z_lP (MPI rank 0) for atom          3 / 18,    Execution time    1.1 s
 Computed Z_lP (MPI rank 0) for atom          4 / 18,    Execution time    1.2 s
 Computed Z_lP (MPI rank 0) for atom          5 / 18,    Execution time    1.2 s
 Computed Z_lP (MPI rank 0) for atom          6 / 18,    Execution time    1.2 s
 Computed Z_lP (MPI rank 0) for atom          7 / 18,    Execution time    1.1 s
 Computed Z_lP (MPI rank 0) for atom          8 / 18,    Execution time    1.1 s
 Computed Z_lP (MPI rank 0) for atom          9 / 18,    Execution time    1.1 s
 Computed Z_lP (MPI rank 0) for atom         10 / 18,    Execution time    1.1 s
 Computed Z_lP (MPI rank 0) for atom         11 / 18,    Execution time    1.1 s
 Computed Z_lP (MPI rank 0) for atom         12 / 18,    Execution time    1.1 s
 Computed Z_lP (MPI rank 0) for atom         13 / 18,    Execution time    1.1 s
 Computed Z_lP (MPI rank 0) for atom         14 / 18,    Execution time    0.7 s
 Computed Z_lP (MPI rank 0) for atom         15 / 18,    Execution time    0.7 s
 Computed Z_lP (MPI rank 0) for atom         16 / 18,    Execution time    0.7 s
 Computed Z_lP (MPI rank 0) for atom         17 / 18,    Execution time    0.9 s
 Computed Z_lP (MPI rank 0) for atom         18 / 18,    Execution time    0.4 s
 Computed Z_lP (all MPI ranks) for all atoms,            Execution time   18.1 s

 Memory per MPI process after computing Z_lP:
 Available memory per MPI process                              129.4 GB
 Used memory per MPI process                                     5.6 GB
 Number of batches for χ, Σ matrices                                           1
 
 Percentage of non-zero matrix elements in Z_lP                          10.05 %
 Percentage of non-zero matrix elements in G_ll', χ_ll', W_ll'           68.52 %
 Percentage of non-zero matrix elements in χ_PQ for time point 1         45.40 %
 
 Computed χ(iτ,k=0) for time point            1 / 30,    Execution time    5.8 s
 Computed χ(iτ,k=0) for time point            2 / 30,    Execution time    5.4 s
 Computed χ(iτ,k=0) for time point            3 / 30,    Execution time    5.3 s
 Computed χ(iτ,k=0) for time point            4 / 30,    Execution time    5.3 s
 Computed χ(iτ,k=0) for time point            5 / 30,    Execution time    5.3 s
 Computed χ(iτ,k=0) for time point            6 / 30,    Execution time    5.3 s
 Computed χ(iτ,k=0) for time point            7 / 30,    Execution time    5.2 s
 Computed χ(iτ,k=0) for time point            8 / 30,    Execution time    5.2 s
 Computed χ(iτ,k=0) for time point            9 / 30,    Execution time    5.1 s
 Computed χ(iτ,k=0) for time point           10 / 30,    Execution time    5.0 s
 Computed χ(iτ,k=0) for time point           11 / 30,    Execution time    5.1 s
 Computed χ(iτ,k=0) for time point           12 / 30,    Execution time    5.0 s
 Computed χ(iτ,k=0) for time point           13 / 30,    Execution time    5.1 s
 Computed χ(iτ,k=0) for time point           14 / 30,    Execution time    5.0 s
 Computed χ(iτ,k=0) for time point           15 / 30,    Execution time    5.0 s
 Computed χ(iτ,k=0) for time point           16 / 30,    Execution time    4.9 s
 Computed χ(iτ,k=0) for time point           17 / 30,    Execution time    5.0 s
 Computed χ(iτ,k=0) for time point           18 / 30,    Execution time    5.1 s
 Computed χ(iτ,k=0) for time point           19 / 30,    Execution time    4.9 s
 Computed χ(iτ,k=0) for time point           20 / 30,    Execution time    4.8 s
 Computed χ(iτ,k=0) for time point           21 / 30,    Execution time    4.8 s
 Computed χ(iτ,k=0) for time point           22 / 30,    Execution time    4.6 s
 Computed χ(iτ,k=0) for time point           23 / 30,    Execution time    4.4 s
 Computed χ(iτ,k=0) for time point           24 / 30,    Execution time    3.8 s
 Computed χ(iτ,k=0) for time point           25 / 30,    Execution time    3.3 s
 Computed χ(iτ,k=0) for time point           26 / 30,    Execution time    2.8 s
 Computed χ(iτ,k=0) for time point           27 / 30,    Execution time    1.7 s
 Computed χ(iτ,k=0) for time point           28 / 30,    Execution time    1.6 s
 Computed χ(iτ,k=0) for time point           29 / 30,    Execution time    1.6 s
 Computed χ(iτ,k=0) for time point           30 / 30,    Execution time    1.6 s
 
 Computed W(iτ),                                         Execution time  736.2 s
 Computed W(0),                                          Execution time    4.3 s
 
 Computed Σ^x(k=0),                                      Execution time   12.7 s
 
 Computed Σ^c(iτ) for time point              1 / 30,    Execution time    8.8 s
 Computed Σ^c(iτ) for time point              2 / 30,    Execution time    8.6 s
 Computed Σ^c(iτ) for time point              3 / 30,    Execution time    8.6 s
 Computed Σ^c(iτ) for time point              4 / 30,    Execution time    8.5 s
 Computed Σ^c(iτ) for time point              5 / 30,    Execution time    8.5 s
 Computed Σ^c(iτ) for time point              6 / 30,    Execution time    8.5 s
 Computed Σ^c(iτ) for time point              7 / 30,    Execution time    8.5 s
 Computed Σ^c(iτ) for time point              8 / 30,    Execution time    8.3 s
 Computed Σ^c(iτ) for time point              9 / 30,    Execution time    8.2 s
 Computed Σ^c(iτ) for time point             10 / 30,    Execution time    8.3 s
 Computed Σ^c(iτ) for time point             11 / 30,    Execution time    8.1 s
 Computed Σ^c(iτ) for time point             12 / 30,    Execution time    8.1 s
 Computed Σ^c(iτ) for time point             13 / 30,    Execution time    8.0 s
 Computed Σ^c(iτ) for time point             14 / 30,    Execution time    8.0 s
 Computed Σ^c(iτ) for time point             15 / 30,    Execution time    7.9 s
 Computed Σ^c(iτ) for time point             16 / 30,    Execution time    7.9 s
 Computed Σ^c(iτ) for time point             17 / 30,    Execution time    7.9 s
 Computed Σ^c(iτ) for time point             18 / 30,    Execution time    7.7 s
 Computed Σ^c(iτ) for time point             19 / 30,    Execution time    7.5 s
 Computed Σ^c(iτ) for time point             20 / 30,    Execution time    7.4 s
 Computed Σ^c(iτ) for time point             21 / 30,    Execution time    7.2 s
 Computed Σ^c(iτ) for time point             22 / 30,    Execution time    7.0 s
 Computed Σ^c(iτ) for time point             23 / 30,    Execution time    6.7 s
 Computed Σ^c(iτ) for time point             24 / 30,    Execution time    6.3 s
 Computed Σ^c(iτ) for time point             25 / 30,    Execution time    5.3 s
 Computed Σ^c(iτ) for time point             26 / 30,    Execution time    3.6 s
 Computed Σ^c(iτ) for time point             27 / 30,    Execution time    1.8 s
 Computed Σ^c(iτ) for time point             28 / 30,    Execution time    1.8 s
 Computed Σ^c(iτ) for time point             29 / 30,    Execution time    1.7 s
 Computed Σ^c(iτ) for time point             30 / 30,    Execution time    1.8 s

 *** WARNING in post_scf_bandstructure_utils.F:3142 :: G0W0 reorders the ***
 *** occupied levels: the SCF valence band maximum (SCF HOMO) is level   ***
 *** 1924, whereas the G0W0 valence band maximum (G0W0 HOMO) is level    ***
 *** 1922. The SCF and G0W0 band edges printed below therefore belong to ***
 *** different orbitals; see the eigenvalues in the file                 ***
 *** bandstructure_SCF_and_G0W0.                                         ***

 Compute DOS, LDOS for k-point                1 /  1,    Execution time   23.7 s
 
 SCF valence band maximum (eV):                                           -4.657
 SCF conduction band minimum (eV):                                        -3.132
 SCF indirect band gap (eV):                                               1.525
 SCF direct band gap (eV):                                                 1.525
 
 G0W0 valence band maximum (eV):                                          -5.059
 G0W0 conduction band minimum (eV):                                       -1.875
 G0W0 indirect band gap (eV):                                              3.184
 G0W0 direct band gap (eV):                                                3.184
 
 Hartree-Fock with SCF orbitals valence band maximum (eV):                -5.180
 Hartree-Fock with SCF orbitals conduction band minimum (eV)               0.408
 Hartree-Fock with SCF orbitals indirect band gap (eV):                    5.589
 Hartree-Fock with SCF orbitals direct band gap (eV):                      5.589

 ENERGY| Total FORCE_EVAL ( QS ) energy [hartree]          -5254.428156075651714

 *** HINT in emd/rt_bse_linearized.F:440 :: ENFORCE_MAX_DT enabled. ***
 *** Resetting TIMESTEP to          70.2247 as and STEPS to 2848.   ***

 
 /-----------------------------------------------------------------------------\
 |                                                                             |
 |              Linearized Real Time Bethe-Salpeter Propagation                |
 |                                                                             |
 \-----------------------------------------------------------------------------/
 
 Apply delta pulse                                                             T

 Use Tamm-Dancoff                                                              T
 TDA first-peak shift active                                                   F

 Estimated maximum timestep within stability region [as]:                70.2294
 Applied timestep [as]:                                                  70.2247
 Number of propagation steps:                                               2848
 Total propagation time [as]:                                        200000.0000
 Estimated FFT frequency resolution without interpolation [eV]:         0.020678
 Nyquist frequency [eV]:                                               29.445951
 Estimated maximum oscillation frequency (gap-based) [eV]:             26.508886
 GW flavor for computing GW eigenvalues used in RT-BSE:                     G0W0
 Active-window occupied energy cutoff [eV]:                               10.000
 Active-window virtual energy cutoff [eV]:                                10.000
 First active occupied MO index:                                             642
 Last active virtual MO index:                                              3802
 Number of active MOs:                                                      3161
 Spin 1 first active MO, E - E_HOMO (KS) [eV]:                            -9.998
 Spin 1 last active MO, E - E_LUMO (KS) [eV]:                              9.994
 Spin 1 first active MO, E - E_HOMO (QP) [eV]:                           -12.482
 Spin 1 last active MO, E - E_LUMO (QP) [eV]:                             10.810
 Precomputed RT-BSE RI-RS V_aux kernel,                  Execution time    7.2 s
 
 W0CUT| Cutoff radius, negative = off [angstrom]                         50.0000
 W0CUT| Retained block fraction                                         0.331253
 W0CUT| Retained Frobenius norm                                   3.87327506E+07
 Precomputed RT-BSE RI-RS W0_grid kernel,                Execution time    9.3 s
 
 RTBSE| Applying delta pulse
 RTBSE| Delta pulse elements (a.u.) :   -0.0000E+000  -0.1000E-002  -0.0000E+000
 RTBSE| Metric difference after delta kick                       0.64775938E-002
 RTBSE| Estimated runtime for propagation [s]                          59687.434
 RTBSE|
 RTBSE| Simulation step   Step time [s]                          Electron number
 RTBSE|               0          20.958                               0.257E+004
 RTBSE|               1          20.518                               0.257E+004
 RTBSE|               2          20.378                               0.257E+004
 RTBSE|               3          20.305                               0.257E+004
 RTBSE|               4          20.265                               0.257E+004
 RTBSE|               5          20.407                               0.257E+004
 RTBSE|               6          20.231                               0.257E+004
 RTBSE|               7          20.219                               0.257E+004
 RTBSE|               8          20.321                               0.257E+004
 RTBSE|               9          20.361                               0.257E+004
 RTBSE|              10          20.189                               0.257E+004
 RTBSE|              11          20.211                               0.257E+004
 RTBSE|              12          20.179                               0.257E+004
 RTBSE|              13          20.139                               0.257E+004
 RTBSE|              14          20.174                               0.257E+004
 RTBSE|              15          20.228                               0.257E+004
 RTBSE|              16          20.173                               0.257E+004
 RTBSE|              17          20.244                               0.257E+004
 RTBSE|              18          20.117                               0.257E+004
 RTBSE|              19          20.135                               0.257E+004
 RTBSE|              20          20.237                               0.257E+004
 RTBSE|              21          20.162                               0.257E+004
 RTBSE|              22          20.037                               0.257E+004
 RTBSE|              23          20.255                               0.257E+004
 RTBSE|              24          20.103                               0.257E+004
 RTBSE|              25          20.114                               0.257E+004
 RTBSE|              26          20.122                               0.257E+004
 RTBSE|              27          20.228                               0.257E+004
 RTBSE|              28          20.174                               0.257E+004
 RTBSE|              29          20.140                               0.257E+004
 RTBSE|              30          20.197                               0.257E+004
 RTBSE|              31          20.027                               0.257E+004
 RTBSE|              32          20.186                               0.257E+004
 RTBSE|              33          20.175                               0.257E+004
 RTBSE|              34          20.143                               0.257E+004
 RTBSE|              35          20.206                               0.257E+004
 RTBSE|              36          20.249                               0.257E+004
 RTBSE|              37          20.131                               0.257E+004
 RTBSE|              38          20.200                               0.257E+004
 RTBSE|              39          20.137                               0.257E+004
 RTBSE|              40          20.103                               0.257E+004
 RTBSE|              41          20.059                               0.257E+004
 RTBSE|              42          20.219                               0.257E+004
 RTBSE|              43          20.156                               0.257E+004
 RTBSE|              44          20.182                               0.257E+004
 RTBSE|              45          20.083                               0.257E+004
 RTBSE|              46          20.111                               0.257E+004
 RTBSE|              47          20.106                               0.257E+004
 RTBSE|              48          20.112                               0.257E+004
 RTBSE|              49          20.045                               0.257E+004
 RTBSE|              50          20.162                               0.257E+004
 RTBSE|              51          20.158                               0.257E+004
 RTBSE|              52          20.079                               0.257E+004
 RTBSE|              53          20.164                               0.257E+004
 RTBSE|              54          20.160                               0.257E+004
 RTBSE|              55          20.091                               0.257E+004
 RTBSE|              56          20.145                               0.257E+004
 RTBSE|              57          20.072                               0.257E+004
 RTBSE|              58          20.087                               0.257E+004
 RTBSE|              59          20.200                               0.257E+004
 RTBSE|              60          20.108                               0.257E+004
 RTBSE|              61          20.052                               0.257E+004
 RTBSE|              62          20.201                               0.257E+004
 RTBSE|              63          20.071                               0.257E+004
 RTBSE|              64          20.120                               0.257E+004
 RTBSE|              65          20.106                               0.257E+004
 RTBSE|              66          20.185                               0.257E+004
 RTBSE|              67          20.068                               0.257E+004
 RTBSE|              68          20.159                               0.257E+004
 RTBSE|              69          20.089                               0.257E+004
 RTBSE|              70          20.124                               0.257E+004
 RTBSE|              71          20.133                               0.257E+004
 RTBSE|              72          20.129                               0.257E+004
 RTBSE|              73          20.111                               0.257E+004
 RTBSE|              74          20.076                               0.257E+004
 RTBSE|              75          20.083                               0.257E+004
 RTBSE|              76          20.067                               0.257E+004
 RTBSE|              77          20.219                               0.257E+004
 RTBSE|              78          20.179                               0.257E+004
 RTBSE|              79          20.146                               0.257E+004
 RTBSE|              80          20.034                               0.257E+004
 RTBSE|              81          19.987                               0.257E+004
 RTBSE|              82          20.107                               0.257E+004
 RTBSE|              83          20.148                               0.257E+004
 RTBSE|              84          19.988                               0.257E+004
 RTBSE|              85          20.084                               0.257E+004
 RTBSE|              86          20.103                               0.257E+004
 RTBSE|              87          20.134                               0.257E+004
 RTBSE|              88          20.124                               0.257E+004
 RTBSE|              89          20.064                               0.257E+004
 RTBSE|              90          19.973                               0.257E+004
 RTBSE|              91          20.017                               0.257E+004
 RTBSE|              92          20.097                               0.257E+004
 RTBSE|              93          20.090                               0.257E+004
 RTBSE|              94          20.040                               0.257E+004
 RTBSE|              95          20.191                               0.257E+004
 RTBSE|              96          20.060                               0.257E+004
 RTBSE|              97          20.004                               0.257E+004
 RTBSE|              98          20.119                               0.257E+004
 RTBSE|              99          20.080                               0.257E+004
 RTBSE|             100          20.090                               0.257E+004
 RTBSE|             101          20.157                               0.257E+004
 RTBSE|             102          20.013                               0.257E+004
 RTBSE|             103          19.948                               0.257E+004
 RTBSE|             104          20.006                               0.257E+004
 RTBSE|             105          20.025                               0.257E+004
 RTBSE|             106          20.106                               0.257E+004
 RTBSE|             107          20.037                               0.257E+004
 RTBSE|             108          20.047                               0.257E+004
 RTBSE|             109          20.060                               0.257E+004
 RTBSE|             110          20.052                               0.257E+004
 RTBSE|             111          20.128                               0.257E+004
 RTBSE|             112          20.134                               0.257E+004
 RTBSE|             113          20.013                               0.257E+004
 RTBSE|             114          20.014                               0.257E+004
 RTBSE|             115          20.168                               0.257E+004
 RTBSE|             116          20.063                               0.257E+004
 RTBSE|             117          20.052                               0.257E+004
 RTBSE|             118          20.238                               0.257E+004
 RTBSE|             119          20.279                               0.257E+004
 RTBSE|             120          20.112                               0.257E+004
 RTBSE|             121          20.068                               0.257E+004
 RTBSE|             122          20.094                               0.257E+004
 RTBSE|             123          19.959                               0.257E+004
 RTBSE|             124          20.164                               0.257E+004
 RTBSE|             125          20.035                               0.257E+004
 RTBSE|             126          20.079                               0.257E+004
 RTBSE|             127          20.138                               0.257E+004
 RTBSE|             128          20.056                               0.257E+004
 RTBSE|             129          20.085                               0.257E+004
 RTBSE|             130          20.069                               0.257E+004
 RTBSE|             131          20.040                               0.257E+004
 RTBSE|             132          20.057                               0.257E+004
 RTBSE|             133          20.075                               0.257E+004
 RTBSE|             134          20.157                               0.257E+004
 RTBSE|             135          19.986                               0.257E+004
 RTBSE|             136          21.585                               0.257E+004
 RTBSE|             137          20.107                               0.257E+004
 RTBSE|             138          20.044                               0.257E+004
 RTBSE|             139          20.109                               0.257E+004
 RTBSE|             140          20.111                               0.257E+004
 RTBSE|             141          20.054                               0.257E+004
 RTBSE|             142          20.134                               0.257E+004
 RTBSE|             143          20.131                               0.257E+004
 RTBSE|             144          20.018                               0.257E+004
 RTBSE|             145          20.119                               0.257E+004
 RTBSE|             146          20.155                               0.257E+004
 RTBSE|             147          20.094                               0.257E+004
 RTBSE|             148          20.134                               0.257E+004
 RTBSE|             149          20.111                               0.257E+004
 RTBSE|             150          20.015                               0.257E+004
 RTBSE|             151          20.101                               0.257E+004
 RTBSE|             152          20.060                               0.257E+004
 RTBSE|             153          20.138                               0.257E+004
 RTBSE|             154          20.109                               0.257E+004
 RTBSE|             155          21.823                               0.257E+004
 RTBSE|             156          20.092                               0.257E+004
 RTBSE|             157          21.784                               0.257E+004
 RTBSE|             158          20.217                               0.257E+004
 RTBSE|             159          20.009                               0.257E+004
 RTBSE|             160          20.084                               0.257E+004
 RTBSE|             161          20.105                               0.257E+004
 RTBSE|             162          20.085                               0.257E+004
 RTBSE|             163          21.926                               0.257E+004
 RTBSE|             164          20.111                               0.257E+004
 RTBSE|             165          20.149                               0.257E+004
 RTBSE|             166          20.220                               0.257E+004
 RTBSE|             167          20.193                               0.257E+004
 RTBSE|             168          20.066                               0.257E+004
 RTBSE|             169          20.215                               0.257E+004
 RTBSE|             170          20.073                               0.257E+004
 RTBSE|             171          20.132                               0.257E+004
 RTBSE|             172          20.067                               0.257E+004
 RTBSE|             173          20.165                               0.257E+004
 RTBSE|             174          20.081                               0.257E+004
 RTBSE|             175          20.122                               0.257E+004
 RTBSE|             176          20.031                               0.257E+004
 RTBSE|             177          20.141                               0.257E+004
 RTBSE|             178          20.186                               0.257E+004
 RTBSE|             179          20.058                               0.257E+004
 RTBSE|             180          20.089                               0.257E+004
 RTBSE|             181          20.069                               0.257E+004
 RTBSE|             182          20.014                               0.257E+004
 RTBSE|             183          20.112                               0.257E+004
 RTBSE|             184          20.110                               0.257E+004
 RTBSE|             185          20.056                               0.257E+004
 RTBSE|             186          20.042                               0.257E+004
 RTBSE|             187          20.137                               0.257E+004
 RTBSE|             188          20.055                               0.257E+004
 RTBSE|             189          20.137                               0.257E+004
 RTBSE|             190          20.131                               0.257E+004
 RTBSE|             191          20.042                               0.257E+004
 RTBSE|             192          20.113                               0.257E+004
 RTBSE|             193          20.175                               0.257E+004
 RTBSE|             194          20.081                               0.257E+004
 RTBSE|             195          20.002                               0.257E+004
 RTBSE|             196          20.076                               0.257E+004
 RTBSE|             197          20.080                               0.257E+004
 RTBSE|             198          20.043                               0.257E+004
 RTBSE|             199          20.123                               0.257E+004
 RTBSE|             200          20.005                               0.257E+004
 RTBSE|             201          20.152                               0.257E+004
 RTBSE|             202          20.116                               0.257E+004
 RTBSE|             203          20.056                               0.257E+004
 RTBSE|             204          20.144                               0.257E+004
 RTBSE|             205          20.176                               0.257E+004
 RTBSE|             206          20.016                               0.257E+004
 RTBSE|             207          20.026                               0.257E+004
 RTBSE|             208          20.043                               0.257E+004
 RTBSE|             209          20.107                               0.257E+004
 RTBSE|             210          20.189                               0.257E+004
 RTBSE|             211          20.134                               0.257E+004
 RTBSE|             212          20.105                               0.257E+004
 RTBSE|             213          20.050                               0.257E+004
 RTBSE|             214          20.137                               0.257E+004
 RTBSE|             215          20.003                               0.257E+004
 RTBSE|             216          20.041                               0.257E+004
 RTBSE|             217          20.140                               0.257E+004
 RTBSE|             218          20.043                               0.257E+004
 RTBSE|             219          20.075                               0.257E+004
 RTBSE|             220          20.104                               0.257E+004
 RTBSE|             221          20.112                               0.257E+004
 RTBSE|             222          20.029                               0.257E+004
 RTBSE|             223          20.153                               0.257E+004
 RTBSE|             224          20.027                               0.257E+004
 RTBSE|             225          20.086                               0.257E+004
 RTBSE|             226          20.162                               0.257E+004
 RTBSE|             227          20.074                               0.257E+004
 RTBSE|             228          20.089                               0.257E+004
 RTBSE|             229          20.141                               0.257E+004
 RTBSE|             230          20.098                               0.257E+004
 RTBSE|             231          20.027                               0.257E+004
 RTBSE|             232          20.119                               0.257E+004
 RTBSE|             233          20.079                               0.257E+004
 RTBSE|             234          20.110                               0.257E+004
 RTBSE|             235          20.212                               0.257E+004
 RTBSE|             236          20.070                               0.257E+004
 RTBSE|             237          20.067                               0.257E+004
 RTBSE|             238          20.196                               0.257E+004
 RTBSE|             239          20.039                               0.257E+004
 RTBSE|             240          20.026                               0.257E+004
 RTBSE|             241          20.151                               0.257E+004
 RTBSE|             242          20.025                               0.257E+004
 RTBSE|             243          20.063                               0.257E+004
 RTBSE|             244          20.202                               0.257E+004
 RTBSE|             245          20.027                               0.257E+004
 RTBSE|             246          20.109                               0.257E+004
 RTBSE|             247          20.261                               0.257E+004
 RTBSE|             248          20.079                               0.257E+004
 RTBSE|             249          20.076                               0.257E+004
 RTBSE|             250          20.162                               0.257E+004
 RTBSE|             251          20.021                               0.257E+004
 RTBSE|             252          20.097                               0.257E+004
 RTBSE|             253          20.148                               0.257E+004
 RTBSE|             254          20.032                               0.257E+004
 RTBSE|             255          20.042                               0.257E+004
 RTBSE|             256          20.029                               0.257E+004
 RTBSE|             257          20.122                               0.257E+004
 RTBSE|             258          20.086                               0.257E+004
 RTBSE|             259          20.100                               0.257E+004
 RTBSE|             260          20.098                               0.257E+004
 RTBSE|             261          20.064                               0.257E+004
 RTBSE|             262          20.082                               0.257E+004
 RTBSE|             263          20.142                               0.257E+004
 RTBSE|             264          20.038                               0.257E+004
 RTBSE|             265          20.106                               0.257E+004
 RTBSE|             266          20.101                               0.257E+004
 RTBSE|             267          20.029                               0.257E+004
 RTBSE|             268          20.117                               0.257E+004
 RTBSE|             269          20.185                               0.257E+004
 RTBSE|             270          20.098                               0.257E+004
 RTBSE|             271          20.072                               0.257E+004
 RTBSE|             272          20.065                               0.257E+004
 RTBSE|             273          20.028                               0.257E+004
 RTBSE|             274          20.119                               0.257E+004
 RTBSE|             275          20.056                               0.257E+004
 RTBSE|             276          20.078                               0.257E+004
 RTBSE|             277          20.018                               0.257E+004
 RTBSE|             278          20.061                               0.257E+004
 RTBSE|             279          20.095                               0.257E+004
 RTBSE|             280          20.074                               0.257E+004
 RTBSE|             281          20.076                               0.257E+004
 RTBSE|             282          20.032                               0.257E+004
 RTBSE|             283          20.015                               0.257E+004
 RTBSE|             284          20.007                               0.257E+004
 RTBSE|             285          20.125                               0.257E+004
 RTBSE|             286          19.998                               0.257E+004
 RTBSE|             287          20.017                               0.257E+004
 RTBSE|             288          20.045                               0.257E+004
 RTBSE|             289          20.084                               0.257E+004
 RTBSE|             290          20.151                               0.257E+004
 RTBSE|             291          19.997                               0.257E+004
 RTBSE|             292          20.015                               0.257E+004
 RTBSE|             293          20.088                               0.257E+004
 RTBSE|             294          20.014                               0.257E+004
 RTBSE|             295          20.008                               0.257E+004
 RTBSE|             296          20.094                               0.257E+004
 RTBSE|             297          20.023                               0.257E+004
 RTBSE|             298          20.082                               0.257E+004
 RTBSE|             299          20.074                               0.257E+004
 RTBSE|             300          20.044                               0.257E+004
 RTBSE|             301          19.958                               0.257E+004
 RTBSE|             302          20.061                               0.257E+004
 RTBSE|             303          20.075                               0.257E+004
 RTBSE|             304          20.040                               0.257E+004
 RTBSE|             305          20.077                               0.257E+004
 RTBSE|             306          20.173                               0.257E+004
 RTBSE|             307          20.195                               0.257E+004
 RTBSE|             308          20.083                               0.257E+004
 RTBSE|             309          20.098                               0.257E+004
 RTBSE|             310          20.167                               0.257E+004
 RTBSE|             311          20.087                               0.257E+004
 RTBSE|             312          20.096                               0.257E+004
 RTBSE|             313          20.122                               0.257E+004
 RTBSE|             314          20.042                               0.257E+004
 RTBSE|             315          20.082                               0.257E+004
 RTBSE|             316          20.106                               0.257E+004
 RTBSE|             317          20.333                               0.257E+004
 RTBSE|             318          20.186                               0.257E+004
 RTBSE|             319          20.133                               0.257E+004
 RTBSE|             320          20.048                               0.257E+004
 RTBSE|             321          21.538                               0.257E+004
 RTBSE|             322          20.267                               0.257E+004
 RTBSE|             323          20.112                               0.257E+004
 RTBSE|             324          20.116                               0.257E+004
 RTBSE|             325          20.006                               0.257E+004
 RTBSE|             326          20.078                               0.257E+004
 RTBSE|             327          20.148                               0.257E+004
 RTBSE|             328          20.037                               0.257E+004
 RTBSE|             329          20.035                               0.257E+004
 RTBSE|             330          20.058                               0.257E+004
 RTBSE|             331          20.004                               0.257E+004
 RTBSE|             332          20.078                               0.257E+004
 RTBSE|             333          20.206                               0.257E+004
 RTBSE|             334          20.054                               0.257E+004
 RTBSE|             335          20.086                               0.257E+004
 RTBSE|             336          20.114                               0.257E+004
 RTBSE|             337          20.021                               0.257E+004
 RTBSE|             338          20.058                               0.257E+004
 RTBSE|             339          20.194                               0.257E+004
 RTBSE|             340          20.058                               0.257E+004
 RTBSE|             341          20.063                               0.257E+004
 RTBSE|             342          20.125                               0.257E+004
 RTBSE|             343          20.019                               0.257E+004
 RTBSE|             344          20.058                               0.257E+004
 RTBSE|             345          20.132                               0.257E+004
 RTBSE|             346          20.036                               0.257E+004
 RTBSE|             347          20.080                               0.257E+004
 RTBSE|             348          20.088                               0.257E+004
 RTBSE|             349          20.071                               0.257E+004
 RTBSE|             350          20.004                               0.257E+004
 RTBSE|             351          20.151                               0.257E+004
 RTBSE|             352          20.069                               0.257E+004
 RTBSE|             353          20.161                               0.257E+004
 RTBSE|             354          20.013                               0.257E+004
 RTBSE|             355          20.039                               0.257E+004
 RTBSE|             356          20.022                               0.257E+004
 RTBSE|             357          20.095                               0.257E+004
 RTBSE|             358          19.955                               0.257E+004
 RTBSE|             359          20.046                               0.257E+004
 RTBSE|             360          20.084                               0.257E+004
 RTBSE|             361          20.072                               0.257E+004
 RTBSE|             362          20.029                               0.257E+004
 RTBSE|             363          20.087                               0.257E+004
 RTBSE|             364          20.124                               0.257E+004
 RTBSE|             365          20.006                               0.257E+004
 RTBSE|             366          20.118                               0.257E+004
 RTBSE|             367          20.047                               0.257E+004
 RTBSE|             368          20.041                               0.257E+004
 RTBSE|             369          20.113                               0.257E+004
 RTBSE|             370          20.042                               0.257E+004
 RTBSE|             371          20.067                               0.257E+004
 RTBSE|             372          20.049                               0.257E+004
 RTBSE|             373          20.042                               0.257E+004
 RTBSE|             374          20.056                               0.257E+004
 RTBSE|             375          20.004                               0.257E+004
 RTBSE|             376          20.062                               0.257E+004
 RTBSE|             377          20.077                               0.257E+004
 RTBSE|             378          20.221                               0.257E+004
 RTBSE|             379          20.098                               0.257E+004
 RTBSE|             380          20.041                               0.257E+004
 RTBSE|             381          20.122                               0.257E+004
 RTBSE|             382          20.054                               0.257E+004
 RTBSE|             383          19.965                               0.257E+004
 RTBSE|             384          20.067                               0.257E+004
 RTBSE|             385          20.093                               0.257E+004
 RTBSE|             386          19.989                               0.257E+004
 RTBSE|             387          20.081                               0.257E+004
 RTBSE|             388          20.134                               0.257E+004
 RTBSE|             389          20.029                               0.257E+004
 RTBSE|             390          20.096                               0.257E+004
 RTBSE|             391          20.155                               0.257E+004
 RTBSE|             392          20.045                               0.257E+004
 RTBSE|             393          20.061                               0.257E+004
 RTBSE|             394          20.156                               0.257E+004
 RTBSE|             395          20.016                               0.257E+004
 RTBSE|             396          20.042                               0.257E+004
 RTBSE|             397          20.091                               0.257E+004
 RTBSE|             398          20.069                               0.257E+004
 RTBSE|             399          20.130                               0.257E+004
 RTBSE|             400          20.141                               0.257E+004
 RTBSE|             401          19.957                               0.257E+004
 RTBSE|             402          20.088                               0.257E+004
 RTBSE|             403          20.068                               0.257E+004
 RTBSE|             404          20.091                               0.257E+004
 RTBSE|             405          20.137                               0.257E+004
 RTBSE|             406          20.102                               0.257E+004
 RTBSE|             407          20.062                               0.257E+004
 RTBSE|             408          20.129                               0.257E+004
 RTBSE|             409          20.085                               0.257E+004
 RTBSE|             410          20.105                               0.257E+004
 RTBSE|             411          20.138                               0.257E+004
 RTBSE|             412          20.080                               0.257E+004
 RTBSE|             413          20.170                               0.257E+004
 RTBSE|             414          19.990                               0.257E+004
 RTBSE|             415          20.087                               0.257E+004
 RTBSE|             416          20.059                               0.257E+004
 RTBSE|             417          20.088                               0.257E+004
 RTBSE|             418          20.113                               0.257E+004
 RTBSE|             419          20.000                               0.257E+004
 RTBSE|             420          20.171                               0.257E+004
 RTBSE|             421          20.127                               0.257E+004
 RTBSE|             422          20.112                               0.257E+004
 RTBSE|             423          20.095                               0.257E+004
 RTBSE|             424          20.127                               0.257E+004
 RTBSE|             425          20.153                               0.257E+004
 RTBSE|             426          20.017                               0.257E+004
 RTBSE|             427          20.092                               0.257E+004
 RTBSE|             428          20.098                               0.257E+004
 RTBSE|             429          20.104                               0.257E+004
 RTBSE|             430          20.037                               0.257E+004
 RTBSE|             431          20.064                               0.257E+004
 RTBSE|             432          20.045                               0.257E+004
 RTBSE|             433          20.127                               0.257E+004
 RTBSE|             434          20.192                               0.257E+004
 RTBSE|             435          20.098                               0.257E+004
 RTBSE|             436          20.057                               0.257E+004
 RTBSE|             437          20.148                               0.257E+004
 RTBSE|             438          20.049                               0.257E+004
 RTBSE|             439          20.187                               0.257E+004
 RTBSE|             440          20.137                               0.257E+004
 RTBSE|             441          20.070                               0.257E+004
 RTBSE|             442          20.087                               0.257E+004
 RTBSE|             443          20.052                               0.257E+004
 RTBSE|             444          20.085                               0.257E+004
 RTBSE|             445          20.087                               0.257E+004
 RTBSE|             446          20.742                               0.257E+004
 RTBSE|             447          21.198                               0.257E+004
 RTBSE|             448          20.003                               0.257E+004
 RTBSE|             449          20.131                               0.257E+004
 RTBSE|             450          20.038                               0.257E+004
 RTBSE|             451          20.112                               0.257E+004
 RTBSE|             452          20.226                               0.257E+004
 RTBSE|             453          20.047                               0.257E+004
 RTBSE|             454          20.070                               0.257E+004
 RTBSE|             455          20.228                               0.257E+004
 RTBSE|             456          20.137                               0.257E+004
 RTBSE|             457          20.137                               0.257E+004
 RTBSE|             458          20.152                               0.257E+004
 RTBSE|             459          20.058                               0.257E+004
 RTBSE|             460          20.093                               0.257E+004
 RTBSE|             461          20.156                               0.257E+004
 RTBSE|             462          20.007                               0.257E+004
 RTBSE|             463          20.111                               0.257E+004
 RTBSE|             464          20.104                               0.257E+004
 RTBSE|             465          20.066                               0.257E+004
 RTBSE|             466          20.044                               0.257E+004
 RTBSE|             467          20.139                               0.257E+004
 RTBSE|             468          20.030                               0.257E+004
 RTBSE|             469          20.045                               0.257E+004
 RTBSE|             470          20.167                               0.257E+004
 RTBSE|             471          20.043                               0.257E+004
 RTBSE|             472          20.122                               0.257E+004
 RTBSE|             473          20.146                               0.257E+004
 RTBSE|             474          20.044                               0.257E+004
 RTBSE|             475          20.081                               0.257E+004
 RTBSE|             476          20.116                               0.257E+004
 RTBSE|             477          20.089                               0.257E+004
 RTBSE|             478          20.107                               0.257E+004
 RTBSE|             479          20.109                               0.257E+004
 RTBSE|             480          20.077                               0.257E+004
 RTBSE|             481          20.077                               0.257E+004
 RTBSE|             482          20.201                               0.257E+004
 RTBSE|             483          20.040                               0.257E+004
 RTBSE|             484          19.980                               0.257E+004
 RTBSE|             485          20.073                               0.257E+004
 RTBSE|             486          20.133                               0.257E+004
 RTBSE|             487          20.069                               0.257E+004
 RTBSE|             488          20.212                               0.257E+004
 RTBSE|             489          20.112                               0.257E+004
 RTBSE|             490          20.020                               0.257E+004
 RTBSE|             491          20.140                               0.257E+004
 RTBSE|             492          20.157                               0.257E+004
 RTBSE|             493          20.025                               0.257E+004
 RTBSE|             494          20.143                               0.257E+004
 RTBSE|             495          20.119                               0.257E+004
 RTBSE|             496          20.025                               0.257E+004
 RTBSE|             497          20.136                               0.257E+004
 RTBSE|             498          20.138                               0.257E+004
 RTBSE|             499          20.053                               0.257E+004
 RTBSE|             500          20.105                               0.257E+004
 RTBSE|             501          20.123                               0.257E+004
 RTBSE|             502          19.998                               0.257E+004
 RTBSE|             503          20.093                               0.257E+004
 RTBSE|             504          20.073                               0.257E+004
 RTBSE|             505          19.992                               0.257E+004
 RTBSE|             506          20.124                               0.257E+004
 RTBSE|             507          20.199                               0.257E+004
 RTBSE|             508          20.095                               0.257E+004
 RTBSE|             509          20.557                               0.257E+004
 RTBSE|             510          21.328                               0.257E+004
 RTBSE|             511          20.176                               0.257E+004
 RTBSE|             512          20.105                               0.257E+004
 RTBSE|             513          20.004                               0.257E+004
 RTBSE|             514          20.055                               0.257E+004
 RTBSE|             515          20.034                               0.257E+004
 RTBSE|             516          20.126                               0.257E+004
 RTBSE|             517          20.122                               0.257E+004
 RTBSE|             518          20.121                               0.257E+004
 RTBSE|             519          20.107                               0.257E+004
 RTBSE|             520          20.060                               0.257E+004
 RTBSE|             521          20.153                               0.257E+004
 RTBSE|             522          20.104                               0.257E+004
 RTBSE|             523          19.980                               0.257E+004
 RTBSE|             524          21.801                               0.257E+004
 RTBSE|             525          20.095                               0.257E+004
 RTBSE|             526          20.128                               0.257E+004
 RTBSE|             527          20.047                               0.257E+004
 RTBSE|             528          20.194                               0.257E+004
 RTBSE|             529          20.056                               0.257E+004
 RTBSE|             530          20.092                               0.257E+004
 RTBSE|             531          20.150                               0.257E+004
 RTBSE|             532          20.108                               0.257E+004
 RTBSE|             533          20.080                               0.257E+004
 RTBSE|             534          20.118                               0.257E+004
 RTBSE|             535          20.272                               0.257E+004
 RTBSE|             536          20.065                               0.257E+004
 RTBSE|             537          20.087                               0.257E+004
 RTBSE|             538          20.185                               0.257E+004
 RTBSE|             539          20.094                               0.257E+004
 RTBSE|             540          19.999                               0.257E+004
 RTBSE|             541          20.141                               0.257E+004
 RTBSE|             542          20.055                               0.257E+004
 RTBSE|             543          20.122                               0.257E+004
 RTBSE|             544          20.196                               0.257E+004
 RTBSE|             545          20.096                               0.257E+004
 RTBSE|             546          20.063                               0.257E+004
 RTBSE|             547          20.092                               0.257E+004
 RTBSE|             548          20.023                               0.257E+004
 RTBSE|             549          20.089                               0.257E+004
 RTBSE|             550          20.054                               0.257E+004
 RTBSE|             551          20.125                               0.257E+004
 RTBSE|             552          20.075                               0.257E+004
 RTBSE|             553          20.074                               0.257E+004
 RTBSE|             554          20.027                               0.257E+004
 RTBSE|             555          20.021                               0.257E+004
 RTBSE|             556          20.228                               0.257E+004
 RTBSE|             557          20.099                               0.257E+004
 RTBSE|             558          20.034                               0.257E+004
 RTBSE|             559          20.210                               0.257E+004
 RTBSE|             560          20.000                               0.257E+004
 RTBSE|             561          20.062                               0.257E+004
 RTBSE|             562          20.233                               0.257E+004
 RTBSE|             563          20.116                               0.257E+004
 RTBSE|             564          20.151                               0.257E+004
 RTBSE|             565          20.254                               0.257E+004
 RTBSE|             566          20.114                               0.257E+004
 RTBSE|             567          20.121                               0.257E+004
 RTBSE|             568          20.213                               0.257E+004
 RTBSE|             569          20.067                               0.257E+004
 RTBSE|             570          20.003                               0.257E+004
 RTBSE|             571          20.116                               0.257E+004
 RTBSE|             572          20.109                               0.257E+004
 RTBSE|             573          20.039                               0.257E+004
 RTBSE|             574          20.168                               0.257E+004
 RTBSE|             575          20.109                               0.257E+004
 RTBSE|             576          20.064                               0.257E+004
 RTBSE|             577          20.189                               0.257E+004
 RTBSE|             578          20.118                               0.257E+004
 RTBSE|             579          19.959                               0.257E+004
 RTBSE|             580          20.214                               0.257E+004
 RTBSE|             581          20.112                               0.257E+004
 RTBSE|             582          20.014                               0.257E+004
 RTBSE|             583          20.051                               0.257E+004
 RTBSE|             584          20.102                               0.257E+004
 RTBSE|             585          20.144                               0.257E+004
 RTBSE|             586          20.077                               0.257E+004
 RTBSE|             587          20.116                               0.257E+004
 RTBSE|             588          20.030                               0.257E+004
 RTBSE|             589          20.094                               0.257E+004
 RTBSE|             590          20.073                               0.257E+004
 RTBSE|             591          20.016                               0.257E+004
 RTBSE|             592          20.200                               0.257E+004
 RTBSE|             593          20.092                               0.257E+004
 RTBSE|             594          19.999                               0.257E+004
 RTBSE|             595          20.074                               0.257E+004
 RTBSE|             596          20.053                               0.257E+004
 RTBSE|             597          19.999                               0.257E+004
 RTBSE|             598          20.070                               0.257E+004
 RTBSE|             599          20.079                               0.257E+004
 RTBSE|             600          20.131                               0.257E+004
 RTBSE|             601          20.202                               0.257E+004
 RTBSE|             602          20.150                               0.257E+004
 RTBSE|             603          20.047                               0.257E+004
 RTBSE|             604          20.165                               0.257E+004
 RTBSE|             605          20.070                               0.257E+004
 RTBSE|             606          20.074                               0.257E+004
 RTBSE|             607          20.174                               0.257E+004
 RTBSE|             608          20.107                               0.257E+004
 RTBSE|             609          20.106                               0.257E+004
 RTBSE|             610          20.152                               0.257E+004
 RTBSE|             611          20.121                               0.257E+004
 RTBSE|             612          20.087                               0.257E+004
 RTBSE|             613          20.111                               0.257E+004
 RTBSE|             614          20.102                               0.257E+004
 RTBSE|             615          20.059                               0.257E+004
 RTBSE|             616          20.062                               0.257E+004
 RTBSE|             617          20.104                               0.257E+004
 RTBSE|             618          20.141                               0.257E+004
 RTBSE|             619          20.079                               0.257E+004
 RTBSE|             620          20.128                               0.257E+004
 RTBSE|             621          20.007                               0.257E+004
 RTBSE|             622          20.064                               0.257E+004
 RTBSE|             623          20.144                               0.257E+004
 RTBSE|             624          20.114                               0.257E+004
 RTBSE|             625          20.181                               0.257E+004
 RTBSE|             626          20.149                               0.257E+004
 RTBSE|             627          20.086                               0.257E+004
 RTBSE|             628          20.108                               0.257E+004
 RTBSE|             629          20.123                               0.257E+004
 RTBSE|             630          20.105                               0.257E+004
 RTBSE|             631          20.066                               0.257E+004
 RTBSE|             632          20.123                               0.257E+004
 RTBSE|             633          20.127                               0.257E+004
 RTBSE|             634          20.033                               0.257E+004
 RTBSE|             635          20.077                               0.257E+004
 RTBSE|             636          20.102                               0.257E+004
 RTBSE|             637          20.041                               0.257E+004
 RTBSE|             638          20.093                               0.257E+004
 RTBSE|             639          20.011                               0.257E+004
 RTBSE|             640          20.015                               0.257E+004
 RTBSE|             641          20.073                               0.257E+004
 RTBSE|             642          20.121                               0.257E+004
 RTBSE|             643          20.066                               0.257E+004
 RTBSE|             644          20.110                               0.257E+004
 RTBSE|             645          20.095                               0.257E+004
 RTBSE|             646          20.007                               0.257E+004
 RTBSE|             647          20.096                               0.257E+004
 RTBSE|             648          19.980                               0.257E+004
 RTBSE|             649          19.971                               0.257E+004
 RTBSE|             650          20.021                               0.257E+004
 RTBSE|             651          20.068                               0.257E+004
 RTBSE|             652          20.033                               0.257E+004
 RTBSE|             653          20.049                               0.257E+004
 RTBSE|             654          20.113                               0.257E+004
 RTBSE|             655          20.098                               0.257E+004
 RTBSE|             656          20.041                               0.257E+004
 RTBSE|             657          20.114                               0.257E+004
 RTBSE|             658          20.033                               0.257E+004
 RTBSE|             659          20.045                               0.257E+004
 RTBSE|             660          20.182                               0.257E+004
 RTBSE|             661          20.097                               0.257E+004
 RTBSE|             662          20.018                               0.257E+004
 RTBSE|             663          20.066                               0.257E+004
 RTBSE|             664          19.997                               0.257E+004
 RTBSE|             665          20.105                               0.257E+004
 RTBSE|             666          20.073                               0.257E+004
 RTBSE|             667          19.950                               0.257E+004
 RTBSE|             668          20.103                               0.257E+004
 RTBSE|             669          19.976                               0.257E+004
 RTBSE|             670          20.131                               0.257E+004
 RTBSE|             671          19.945                               0.257E+004
 RTBSE|             672          20.154                               0.257E+004
 RTBSE|             673          20.105                               0.257E+004
 RTBSE|             674          20.008                               0.257E+004
 RTBSE|             675          20.070                               0.257E+004
 RTBSE|             676          20.090                               0.257E+004
 RTBSE|             677          20.038                               0.257E+004
 RTBSE|             678          20.055                               0.257E+004
 RTBSE|             679          20.000                               0.257E+004
 RTBSE|             680          20.126                               0.257E+004
 RTBSE|             681          20.060                               0.257E+004
 RTBSE|             682          20.094                               0.257E+004
 RTBSE|             683          20.131                               0.257E+004
 RTBSE|             684          20.073                               0.257E+004
 RTBSE|             685          20.111                               0.257E+004
 RTBSE|             686          20.020                               0.257E+004
 RTBSE|             687          20.083                               0.257E+004
 RTBSE|             688          20.113                               0.257E+004
 RTBSE|             689          20.084                               0.257E+004
 RTBSE|             690          20.078                               0.257E+004
 RTBSE|             691          20.055                               0.257E+004
 RTBSE|             692          19.982                               0.257E+004
 RTBSE|             693          20.147                               0.257E+004
 RTBSE|             694          21.867                               0.257E+004
 RTBSE|             695          20.001                               0.257E+004
 RTBSE|             696          20.071                               0.257E+004
 RTBSE|             697          20.124                               0.257E+004
 RTBSE|             698          20.012                               0.257E+004
 RTBSE|             699          20.077                               0.257E+004
 RTBSE|             700          20.077                               0.257E+004
 RTBSE|             701          19.959                               0.257E+004
 RTBSE|             702          20.187                               0.257E+004
 RTBSE|             703          20.081                               0.257E+004
 RTBSE|             704          20.004                               0.257E+004
 RTBSE|             705          20.068                               0.257E+004
 RTBSE|             706          20.100                               0.257E+004
 RTBSE|             707          20.087                               0.257E+004
 RTBSE|             708          20.117                               0.257E+004
 RTBSE|             709          20.148                               0.257E+004
 RTBSE|             710          19.987                               0.257E+004
 RTBSE|             711          20.079                               0.257E+004
 RTBSE|             712          20.079                               0.257E+004
 RTBSE|             713          20.014                               0.257E+004
 RTBSE|             714          20.088                               0.257E+004
 RTBSE|             715          20.171                               0.257E+004
 RTBSE|             716          20.049                               0.257E+004
 RTBSE|             717          20.173                               0.257E+004
 RTBSE|             718          20.125                               0.257E+004
 RTBSE|             719          20.028                               0.257E+004
 RTBSE|             720          20.080                               0.257E+004
 RTBSE|             721          20.147                               0.257E+004
 RTBSE|             722          20.136                               0.257E+004
 RTBSE|             723          20.016                               0.257E+004
 RTBSE|             724          20.173                               0.257E+004
 RTBSE|             725          19.948                               0.257E+004
 RTBSE|             726          20.091                               0.257E+004
 RTBSE|             727          20.142                               0.257E+004
 RTBSE|             728          20.018                               0.257E+004
 RTBSE|             729          20.127                               0.257E+004
 RTBSE|             730          20.070                               0.257E+004
 RTBSE|             731          20.041                               0.257E+004
 RTBSE|             732          20.094                               0.257E+004
 RTBSE|             733          20.116                               0.257E+004
 RTBSE|             734          20.087                               0.257E+004
 RTBSE|             735          20.202                               0.257E+004
 RTBSE|             736          20.152                               0.257E+004
 RTBSE|             737          20.033                               0.257E+004
 RTBSE|             738          20.144                               0.257E+004
 RTBSE|             739          20.045                               0.257E+004
 RTBSE|             740          20.043                               0.257E+004
 RTBSE|             741          20.121                               0.257E+004
 RTBSE|             742          20.071                               0.257E+004
 RTBSE|             743          20.131                               0.257E+004
 RTBSE|             744          20.152                               0.257E+004
 RTBSE|             745          20.143                               0.257E+004
 RTBSE|             746          20.066                               0.257E+004
 RTBSE|             747          20.123                               0.257E+004
 RTBSE|             748          20.066                               0.257E+004
 RTBSE|             749          20.104                               0.257E+004
 RTBSE|             750          20.130                               0.257E+004
 RTBSE|             751          20.169                               0.257E+004
 RTBSE|             752          20.028                               0.257E+004
 RTBSE|             753          20.098                               0.257E+004
 RTBSE|             754          20.077                               0.257E+004
 RTBSE|             755          20.115                               0.257E+004
 RTBSE|             756          20.093                               0.257E+004
 RTBSE|             757          20.090                               0.257E+004
 RTBSE|             758          20.078                               0.257E+004
 RTBSE|             759          19.998                               0.257E+004
 RTBSE|             760          20.144                               0.257E+004
 RTBSE|             761          20.079                               0.257E+004
 RTBSE|             762          20.059                               0.257E+004
 RTBSE|             763          20.088                               0.257E+004
 RTBSE|             764          20.113                               0.257E+004
 RTBSE|             765          20.142                               0.257E+004
 RTBSE|             766          20.065                               0.257E+004
 RTBSE|             767          20.006                               0.257E+004
 RTBSE|             768          20.169                               0.257E+004
 RTBSE|             769          20.107                               0.257E+004
 RTBSE|             770          20.140                               0.257E+004
 RTBSE|             771          20.169                               0.257E+004
 RTBSE|             772          20.078                               0.257E+004
 RTBSE|             773          20.035                               0.257E+004
 RTBSE|             774          20.098                               0.257E+004
 RTBSE|             775          20.032                               0.257E+004
 RTBSE|             776          20.021                               0.257E+004
 RTBSE|             777          20.134                               0.257E+004
 RTBSE|             778          20.138                               0.257E+004
 RTBSE|             779          20.097                               0.257E+004
 RTBSE|             780          20.088                               0.257E+004
 RTBSE|             781          20.006                               0.257E+004
 RTBSE|             782          20.037                               0.257E+004
 RTBSE|             783          20.077                               0.257E+004
 RTBSE|             784          20.118                               0.257E+004
 RTBSE|             785          20.109                               0.257E+004
 RTBSE|             786          20.036                               0.257E+004
 RTBSE|             787          20.046                               0.257E+004
 RTBSE|             788          20.144                               0.257E+004
 RTBSE|             789          20.115                               0.257E+004
 RTBSE|             790          20.092                               0.257E+004
 RTBSE|             791          20.163                               0.257E+004
 RTBSE|             792          20.033                               0.257E+004
 RTBSE|             793          20.119                               0.257E+004
 RTBSE|             794          20.159                               0.257E+004
 RTBSE|             795          20.025                               0.257E+004
 RTBSE|             796          20.078                               0.257E+004
 RTBSE|             797          20.121                               0.257E+004
 RTBSE|             798          20.156                               0.257E+004
 RTBSE|             799          20.072                               0.257E+004
 RTBSE|             800          20.142                               0.257E+004
 RTBSE|             801          20.183                               0.257E+004
 RTBSE|             802          20.024                               0.257E+004
 RTBSE|             803          20.110                               0.257E+004
 RTBSE|             804          20.073                               0.257E+004
 RTBSE|             805          20.036                               0.257E+004
 RTBSE|             806          20.121                               0.257E+004
 RTBSE|             807          20.102                               0.257E+004
 RTBSE|             808          20.004                               0.257E+004
 RTBSE|             809          20.114                               0.257E+004
 RTBSE|             810          20.134                               0.257E+004
 RTBSE|             811          20.030                               0.257E+004
 RTBSE|             812          20.057                               0.257E+004
 RTBSE|             813          21.581                               0.257E+004
 RTBSE|             814          20.037                               0.257E+004
 RTBSE|             815          20.085                               0.257E+004
 RTBSE|             816          20.155                               0.257E+004
 RTBSE|             817          20.020                               0.257E+004
 RTBSE|             818          20.070                               0.257E+004
 RTBSE|             819          20.080                               0.257E+004
 RTBSE|             820          20.030                               0.257E+004
 RTBSE|             821          20.103                               0.257E+004
 RTBSE|             822          20.194                               0.257E+004
 RTBSE|             823          20.026                               0.257E+004
 RTBSE|             824          20.046                               0.257E+004
 RTBSE|             825          20.248                               0.257E+004
 RTBSE|             826          20.045                               0.257E+004
 RTBSE|             827          20.121                               0.257E+004
 RTBSE|             828          20.121                               0.257E+004
 RTBSE|             829          20.047                               0.257E+004
 RTBSE|             830          20.082                               0.257E+004
 RTBSE|             831          20.120                               0.257E+004
 RTBSE|             832          20.034                               0.257E+004
 RTBSE|             833          20.045                               0.257E+004
 RTBSE|             834          20.171                               0.257E+004
 RTBSE|             835          20.047                               0.257E+004
 RTBSE|             836          20.086                               0.257E+004
 RTBSE|             837          20.026                               0.257E+004
 RTBSE|             838          20.058                               0.257E+004
 RTBSE|             839          19.959                               0.257E+004
 RTBSE|             840          20.175                               0.257E+004
 RTBSE|             841          20.010                               0.257E+004
 RTBSE|             842          20.114                               0.257E+004
 RTBSE|             843          20.042                               0.257E+004
 RTBSE|             844          20.091                               0.257E+004
 RTBSE|             845          20.089                               0.257E+004
 RTBSE|             846          20.200                               0.257E+004
 RTBSE|             847          20.002                               0.257E+004
 RTBSE|             848          20.209                               0.257E+004
 RTBSE|             849          20.018                               0.257E+004
 RTBSE|             850          20.021                               0.257E+004
 RTBSE|             851          20.063                               0.257E+004
 RTBSE|             852          20.190                               0.257E+004
 RTBSE|             853          20.098                               0.257E+004
 RTBSE|             854          20.088                               0.257E+004
 RTBSE|             855          20.131                               0.257E+004
 RTBSE|             856          20.121                               0.257E+004
 RTBSE|             857          20.029                               0.257E+004
 RTBSE|             858          21.339                               0.257E+004
 RTBSE|             859          20.811                               0.257E+004
 RTBSE|             860          20.144                               0.257E+004
 RTBSE|             861          20.074                               0.257E+004
 RTBSE|             862          20.088                               0.257E+004
 RTBSE|             863          20.049                               0.257E+004
 RTBSE|             864          19.976                               0.257E+004
 RTBSE|             865          21.761                               0.257E+004
 RTBSE|             866          20.177                               0.257E+004
 RTBSE|             867          20.064                               0.257E+004
 RTBSE|             868          20.071                               0.257E+004
 RTBSE|             869          20.094                               0.257E+004
 RTBSE|             870          20.091                               0.257E+004
 RTBSE|             871          20.110                               0.257E+004
 RTBSE|             872          20.194                               0.257E+004
 RTBSE|             873          20.069                               0.257E+004
 RTBSE|             874          20.141                               0.257E+004
 RTBSE|             875          20.055                               0.257E+004
 RTBSE|             876          20.044                               0.257E+004
 RTBSE|             877          20.156                               0.257E+004
 RTBSE|             878          20.134                               0.257E+004
 RTBSE|             879          20.147                               0.257E+004
 RTBSE|             880          20.130                               0.257E+004
 RTBSE|             881          19.976                               0.257E+004
 RTBSE|             882          19.969                               0.257E+004
 RTBSE|             883          20.255                               0.257E+004
 RTBSE|             884          20.181                               0.257E+004
 RTBSE|             885          20.095                               0.257E+004
 RTBSE|             886          20.148                               0.257E+004
 RTBSE|             887          20.102                               0.257E+004
 RTBSE|             888          20.171                               0.257E+004
 RTBSE|             889          20.163                               0.257E+004
 RTBSE|             890          20.100                               0.257E+004
 RTBSE|             891          20.110                               0.257E+004
 RTBSE|             892          20.183                               0.257E+004
 RTBSE|             893          20.062                               0.257E+004
 RTBSE|             894          20.029                               0.257E+004
 RTBSE|             895          20.254                               0.257E+004
 RTBSE|             896          20.022                               0.257E+004
 RTBSE|             897          20.113                               0.257E+004
 RTBSE|             898          20.090                               0.257E+004
 RTBSE|             899          20.222                               0.257E+004
 RTBSE|             900          20.093                               0.257E+004
 RTBSE|             901          20.204                               0.257E+004
 RTBSE|             902          20.163                               0.257E+004
 RTBSE|             903          19.999                               0.257E+004
 RTBSE|             904          20.141                               0.257E+004
 RTBSE|             905          20.122                               0.257E+004
 RTBSE|             906          19.978                               0.257E+004
 RTBSE|             907          20.100                               0.257E+004
 RTBSE|             908          20.126                               0.257E+004
 RTBSE|             909          19.964                               0.257E+004
 RTBSE|             910          20.017                               0.257E+004
 RTBSE|             911          20.168                               0.257E+004
 RTBSE|             912          20.121                               0.257E+004
 RTBSE|             913          20.073                               0.257E+004
 RTBSE|             914          20.197                               0.257E+004
 RTBSE|             915          20.094                               0.257E+004
 RTBSE|             916          20.069                               0.257E+004
 RTBSE|             917          20.151                               0.257E+004
 RTBSE|             918          20.019                               0.257E+004
 RTBSE|             919          20.141                               0.257E+004
 RTBSE|             920          20.195                               0.257E+004
 RTBSE|             921          20.089                               0.257E+004
 RTBSE|             922          20.057                               0.257E+004
 RTBSE|             923          20.134                               0.257E+004
 RTBSE|             924          20.056                               0.257E+004
 RTBSE|             925          20.154                               0.257E+004
 RTBSE|             926          20.139                               0.257E+004
 RTBSE|             927          20.056                               0.257E+004
 RTBSE|             928          20.012                               0.257E+004
 RTBSE|             929          20.156                               0.257E+004
 RTBSE|             930          20.049                               0.257E+004
 RTBSE|             931          20.098                               0.257E+004
 RTBSE|             932          20.126                               0.257E+004
 RTBSE|             933          20.089                               0.257E+004
 RTBSE|             934          20.031                               0.257E+004
 RTBSE|             935          20.201                               0.257E+004
 RTBSE|             936          20.059                               0.257E+004
 RTBSE|             937          19.995                               0.257E+004
 RTBSE|             938          20.052                               0.257E+004
 RTBSE|             939          20.070                               0.257E+004
 RTBSE|             940          19.978                               0.257E+004
 RTBSE|             941          20.105                               0.257E+004
 RTBSE|             942          20.076                               0.257E+004
 RTBSE|             943          20.073                               0.257E+004
 RTBSE|             944          20.118                               0.257E+004
 RTBSE|             945          20.042                               0.257E+004
 RTBSE|             946          19.994                               0.257E+004
 RTBSE|             947          20.059                               0.257E+004
 RTBSE|             948          20.015                               0.257E+004
 RTBSE|             949          19.969                               0.257E+004
 RTBSE|             950          20.081                               0.257E+004
 RTBSE|             951          20.080                               0.257E+004
 RTBSE|             952          20.067                               0.257E+004
 RTBSE|             953          20.142                               0.257E+004
 RTBSE|             954          20.061                               0.257E+004
 RTBSE|             955          20.055                               0.257E+004
 RTBSE|             956          20.096                               0.257E+004
 RTBSE|             957          20.041                               0.257E+004
 RTBSE|             958          20.099                               0.257E+004
 RTBSE|             959          20.025                               0.257E+004
 RTBSE|             960          20.020                               0.257E+004
 RTBSE|             961          20.011                               0.257E+004
 RTBSE|             962          20.062                               0.257E+004
 RTBSE|             963          20.112                               0.257E+004
 RTBSE|             964          20.035                               0.257E+004
 RTBSE|             965          20.111                               0.257E+004
 RTBSE|             966          20.095                               0.257E+004
 RTBSE|             967          20.036                               0.257E+004
 RTBSE|             968          20.057                               0.257E+004
 RTBSE|             969          20.075                               0.257E+004
 RTBSE|             970          20.101                               0.257E+004
 RTBSE|             971          20.092                               0.257E+004
 RTBSE|             972          20.092                               0.257E+004
 RTBSE|             973          20.104                               0.257E+004
 RTBSE|             974          20.109                               0.257E+004
 RTBSE|             975          20.098                               0.257E+004
 RTBSE|             976          20.125                               0.257E+004
 RTBSE|             977          20.026                               0.257E+004
 RTBSE|             978          20.160                               0.257E+004
 RTBSE|             979          20.044                               0.257E+004
 RTBSE|             980          21.638                               0.257E+004
 RTBSE|             981          20.086                               0.257E+004
 RTBSE|             982          20.090                               0.257E+004
 RTBSE|             983          20.064                               0.257E+004
 RTBSE|             984          20.139                               0.257E+004
 RTBSE|             985          20.188                               0.257E+004
 RTBSE|             986          20.111                               0.257E+004
 RTBSE|             987          20.131                               0.257E+004
 RTBSE|             988          20.125                               0.257E+004
 RTBSE|             989          20.088                               0.257E+004
 RTBSE|             990          20.084                               0.257E+004
 RTBSE|             991          20.109                               0.257E+004
 RTBSE|             992          20.062                               0.257E+004
 RTBSE|             993          20.070                               0.257E+004
 RTBSE|             994          20.097                               0.257E+004
 RTBSE|             995          20.070                               0.257E+004
 RTBSE|             996          20.147                               0.257E+004
 RTBSE|             997          20.128                               0.257E+004
 RTBSE|             998          20.035                               0.257E+004
 RTBSE|             999          20.136                               0.257E+004
 RTBSE|            1000          20.156                               0.257E+004
 RTBSE|            1001          19.987                               0.257E+004
 RTBSE|            1002          20.098                               0.257E+004
 RTBSE|            1003          20.127                               0.257E+004
 RTBSE|            1004          20.061                               0.257E+004
 RTBSE|            1005          20.150                               0.257E+004
 RTBSE|            1006          20.237                               0.257E+004
 RTBSE|            1007          20.037                               0.257E+004
 RTBSE|            1008          20.057                               0.257E+004
 RTBSE|            1009          20.168                               0.257E+004
 RTBSE|            1010          20.040                               0.257E+004
 RTBSE|            1011          20.137                               0.257E+004
 RTBSE|            1012          20.178                               0.257E+004
 RTBSE|            1013          20.067                               0.257E+004
 RTBSE|            1014          20.158                               0.257E+004
 RTBSE|            1015          20.114                               0.257E+004
 RTBSE|            1016          20.105                               0.257E+004
 RTBSE|            1017          20.072                               0.257E+004
 RTBSE|            1018          20.121                               0.257E+004
 RTBSE|            1019          20.054                               0.257E+004
 RTBSE|            1020          20.097                               0.257E+004
 RTBSE|            1021          20.131                               0.257E+004
 RTBSE|            1022          20.114                               0.257E+004
 RTBSE|            1023          19.953                               0.257E+004
 RTBSE|            1024          20.135                               0.257E+004
 RTBSE|            1025          20.063                               0.257E+004
 RTBSE|            1026          20.096                               0.257E+004
 RTBSE|            1027          20.163                               0.257E+004
 RTBSE|            1028          20.046                               0.257E+004
 RTBSE|            1029          20.001                               0.257E+004
 RTBSE|            1030          20.133                               0.257E+004
 RTBSE|            1031          20.095                               0.257E+004
 RTBSE|            1032          20.001                               0.257E+004
 RTBSE|            1033          20.173                               0.257E+004
 RTBSE|            1034          20.031                               0.257E+004
 RTBSE|            1035          20.197                               0.257E+004
 RTBSE|            1036          20.059                               0.257E+004
 RTBSE|            1037          20.043                               0.257E+004
 RTBSE|            1038          20.162                               0.257E+004
 RTBSE|            1039          20.151                               0.257E+004
 RTBSE|            1040          20.067                               0.257E+004
 RTBSE|            1041          20.179                               0.257E+004
 RTBSE|            1042          20.151                               0.257E+004
 RTBSE|            1043          20.061                               0.257E+004
 RTBSE|            1044          20.008                               0.257E+004
 RTBSE|            1045          20.145                               0.257E+004
 RTBSE|            1046          20.084                               0.257E+004
 RTBSE|            1047          20.207                               0.257E+004
 RTBSE|            1048          20.123                               0.257E+004
 RTBSE|            1049          20.095                               0.257E+004
 RTBSE|            1050          20.047                               0.257E+004
 RTBSE|            1051          20.150                               0.257E+004
 RTBSE|            1052          20.113                               0.257E+004
 RTBSE|            1053          20.193                               0.257E+004
 RTBSE|            1054          20.281                               0.257E+004
 RTBSE|            1055          20.147                               0.257E+004
 RTBSE|            1056          20.011                               0.257E+004
 RTBSE|            1057          20.192                               0.257E+004
 RTBSE|            1058          20.116                               0.257E+004
 RTBSE|            1059          21.872                               0.257E+004
 RTBSE|            1060          20.086                               0.257E+004
 RTBSE|            1061          20.076                               0.257E+004
 RTBSE|            1062          20.017                               0.257E+004
 RTBSE|            1063          20.070                               0.257E+004
 RTBSE|            1064          20.066                               0.257E+004
 RTBSE|            1065          20.025                               0.257E+004
 RTBSE|            1066          20.195                               0.257E+004
 RTBSE|            1067          20.158                               0.257E+004
 RTBSE|            1068          21.769                               0.257E+004
 RTBSE|            1069          20.137                               0.257E+004
 RTBSE|            1070          20.121                               0.257E+004
 RTBSE|            1071          20.075                               0.257E+004
 RTBSE|            1072          20.100                               0.257E+004
 RTBSE|            1073          20.083                               0.257E+004
 RTBSE|            1074          20.088                               0.257E+004
 RTBSE|            1075          20.060                               0.257E+004
 RTBSE|            1076          20.099                               0.257E+004
 RTBSE|            1077          20.116                               0.257E+004
 RTBSE|            1078          20.102                               0.257E+004
 RTBSE|            1079          20.159                               0.257E+004
 RTBSE|            1080          20.168                               0.257E+004
 RTBSE|            1081          19.987                               0.257E+004
 RTBSE|            1082          20.094                               0.257E+004
 RTBSE|            1083          20.089                               0.257E+004
 RTBSE|            1084          20.040                               0.257E+004
 RTBSE|            1085          20.213                               0.257E+004
 RTBSE|            1086          20.071                               0.257E+004
 RTBSE|            1087          20.071                               0.257E+004
 RTBSE|            1088          20.088                               0.257E+004
 RTBSE|            1089          20.111                               0.257E+004
 RTBSE|            1090          20.021                               0.257E+004
 RTBSE|            1091          20.124                               0.257E+004
 RTBSE|            1092          20.159                               0.257E+004
 RTBSE|            1093          20.029                               0.257E+004
 RTBSE|            1094          20.066                               0.257E+004
 RTBSE|            1095          20.202                               0.257E+004
 RTBSE|            1096          19.997                               0.257E+004
 RTBSE|            1097          20.073                               0.257E+004
 RTBSE|            1098          21.744                               0.257E+004
 RTBSE|            1099          20.032                               0.257E+004
 RTBSE|            1100          20.023                               0.257E+004
 RTBSE|            1101          20.170                               0.257E+004
 RTBSE|            1102          20.042                               0.257E+004
 RTBSE|            1103          20.058                               0.257E+004
 RTBSE|            1104          20.192                               0.257E+004
 RTBSE|            1105          20.057                               0.257E+004
 RTBSE|            1106          20.069                               0.257E+004
 RTBSE|            1107          20.135                               0.257E+004
 RTBSE|            1108          20.053                               0.257E+004
 RTBSE|            1109          20.013                               0.257E+004
 RTBSE|            1110          20.123                               0.257E+004
 RTBSE|            1111          20.002                               0.257E+004
 RTBSE|            1112          20.058                               0.257E+004
 RTBSE|            1113          20.187                               0.257E+004
 RTBSE|            1114          20.042                               0.257E+004
 RTBSE|            1115          20.018                               0.257E+004
 RTBSE|            1116          20.251                               0.257E+004
 RTBSE|            1117          20.105                               0.257E+004
 RTBSE|            1118          20.068                               0.257E+004
 RTBSE|            1119          20.130                               0.257E+004
 RTBSE|            1120          20.086                               0.257E+004
 RTBSE|            1121          20.059                               0.257E+004
 RTBSE|            1122          20.211                               0.257E+004
 RTBSE|            1123          20.159                               0.257E+004
 RTBSE|            1124          20.062                               0.257E+004
 RTBSE|            1125          20.264                               0.257E+004
 RTBSE|            1126          20.056                               0.257E+004
 RTBSE|            1127          20.033                               0.257E+004
 RTBSE|            1128          20.189                               0.257E+004
 RTBSE|            1129          20.078                               0.257E+004
 RTBSE|            1130          20.019                               0.257E+004
 RTBSE|            1131          20.210                               0.257E+004
 RTBSE|            1132          20.095                               0.257E+004
 RTBSE|            1133          20.077                               0.257E+004
 RTBSE|            1134          20.233                               0.257E+004
 RTBSE|            1135          20.076                               0.257E+004
 RTBSE|            1136          20.044                               0.257E+004
 RTBSE|            1137          20.193                               0.257E+004
 RTBSE|            1138          19.997                               0.257E+004
 RTBSE|            1139          19.966                               0.257E+004
 RTBSE|            1140          20.191                               0.257E+004
 RTBSE|            1141          20.102                               0.257E+004
 RTBSE|            1142          20.059                               0.257E+004
 RTBSE|            1143          20.151                               0.257E+004
 RTBSE|            1144          20.116                               0.257E+004
 RTBSE|            1145          20.089                               0.257E+004
 RTBSE|            1146          20.076                               0.257E+004
 RTBSE|            1147          20.074                               0.257E+004
 RTBSE|            1148          20.036                               0.257E+004
 RTBSE|            1149          20.101                               0.257E+004
 RTBSE|            1150          20.053                               0.257E+004
 RTBSE|            1151          20.141                               0.257E+004
 RTBSE|            1152          20.081                               0.257E+004
 RTBSE|            1153          20.140                               0.257E+004
 RTBSE|            1154          20.129                               0.257E+004
 RTBSE|            1155          20.029                               0.257E+004
 RTBSE|            1156          20.143                               0.257E+004
 RTBSE|            1157          20.024                               0.257E+004
 RTBSE|            1158          20.181                               0.257E+004
 RTBSE|            1159          20.211                               0.257E+004
 RTBSE|            1160          20.071                               0.257E+004
 RTBSE|            1161          20.181                               0.257E+004
 RTBSE|            1162          20.093                               0.257E+004
 RTBSE|            1163          20.017                               0.257E+004
 RTBSE|            1164          20.047                               0.257E+004
 RTBSE|            1165          20.159                               0.257E+004
 RTBSE|            1166          20.009                               0.257E+004
 RTBSE|            1167          20.194                               0.257E+004
 RTBSE|            1168          20.116                               0.257E+004
 RTBSE|            1169          20.140                               0.257E+004
 RTBSE|            1170          20.131                               0.257E+004
 RTBSE|            1171          20.110                               0.257E+004
 RTBSE|            1172          20.096                               0.257E+004
 RTBSE|            1173          20.077                               0.257E+004
 RTBSE|            1174          20.044                               0.257E+004
 RTBSE|            1175          20.077                               0.257E+004
 RTBSE|            1176          20.035                               0.257E+004
 RTBSE|            1177          20.178                               0.257E+004
 RTBSE|            1178          20.092                               0.257E+004
 RTBSE|            1179          20.117                               0.257E+004
 RTBSE|            1180          20.134                               0.257E+004
 RTBSE|            1181          20.036                               0.257E+004
 RTBSE|            1182          20.156                               0.257E+004
 RTBSE|            1183          20.099                               0.257E+004
 RTBSE|            1184          20.098                               0.257E+004
 RTBSE|            1185          20.058                               0.257E+004
 RTBSE|            1186          20.094                               0.257E+004
 RTBSE|            1187          20.131                               0.257E+004
 RTBSE|            1188          20.169                               0.257E+004
 RTBSE|            1189          20.148                               0.257E+004
 RTBSE|            1190          20.076                               0.257E+004
 RTBSE|            1191          20.033                               0.257E+004
 RTBSE|            1192          20.097                               0.257E+004
 RTBSE|            1193          20.134                               0.257E+004
 RTBSE|            1194          20.017                               0.257E+004
 RTBSE|            1195          20.069                               0.257E+004
 RTBSE|            1196          20.113                               0.257E+004
 RTBSE|            1197          20.042                               0.257E+004
 RTBSE|            1198          20.021                               0.257E+004
 RTBSE|            1199          20.071                               0.257E+004
 RTBSE|            1200          20.124                               0.257E+004
 RTBSE|            1201          20.185                               0.257E+004
 RTBSE|            1202          20.159                               0.257E+004
 RTBSE|            1203          19.990                               0.257E+004
 RTBSE|            1204          20.105                               0.257E+004
 RTBSE|            1205          20.172                               0.257E+004
 RTBSE|            1206          20.018                               0.257E+004
 RTBSE|            1207          20.088                               0.257E+004
 RTBSE|            1208          20.204                               0.257E+004
 RTBSE|            1209          20.045                               0.257E+004
 RTBSE|            1210          20.033                               0.257E+004
 RTBSE|            1211          20.033                               0.257E+004
 RTBSE|            1212          20.031                               0.257E+004
 RTBSE|            1213          19.967                               0.257E+004
 RTBSE|            1214          20.107                               0.257E+004
 RTBSE|            1215          20.016                               0.257E+004
 RTBSE|            1216          20.129                               0.257E+004
 RTBSE|            1217          20.176                               0.257E+004
 RTBSE|            1218          20.021                               0.257E+004
 RTBSE|            1219          20.069                               0.257E+004
 RTBSE|            1220          20.182                               0.257E+004
 RTBSE|            1221          20.123                               0.257E+004
 RTBSE|            1222          20.081                               0.257E+004
 RTBSE|            1223          20.134                               0.257E+004
 RTBSE|            1224          20.012                               0.257E+004
 RTBSE|            1225          20.028                               0.257E+004
 RTBSE|            1226          20.224                               0.257E+004
 RTBSE|            1227          20.071                               0.257E+004
 RTBSE|            1228          20.124                               0.257E+004
 RTBSE|            1229          20.152                               0.257E+004
 RTBSE|            1230          20.048                               0.257E+004
 RTBSE|            1231          19.941                               0.257E+004
 RTBSE|            1232          20.103                               0.257E+004
 RTBSE|            1233          20.057                               0.257E+004
 RTBSE|            1234          19.994                               0.257E+004
 RTBSE|            1235          20.177                               0.257E+004
 RTBSE|            1236          20.107                               0.257E+004
 RTBSE|            1237          21.557                               0.257E+004
 RTBSE|            1238          20.164                               0.257E+004
 RTBSE|            1239          20.031                               0.257E+004
 RTBSE|            1240          20.023                               0.257E+004
 RTBSE|            1241          20.076                               0.257E+004
 RTBSE|            1242          19.973                               0.257E+004
 RTBSE|            1243          20.042                               0.257E+004
 RTBSE|            1244          20.090                               0.257E+004
 RTBSE|            1245          20.007                               0.257E+004
 RTBSE|            1246          20.028                               0.257E+004
 RTBSE|            1247          20.086                               0.257E+004
 RTBSE|            1248          20.034                               0.257E+004
 RTBSE|            1249          19.989                               0.257E+004
 RTBSE|            1250          20.160                               0.257E+004
 RTBSE|            1251          20.004                               0.257E+004
 RTBSE|            1252          20.026                               0.257E+004
 RTBSE|            1253          20.124                               0.257E+004
 RTBSE|            1254          20.097                               0.257E+004
 RTBSE|            1255          19.999                               0.257E+004
 RTBSE|            1256          20.041                               0.257E+004
 RTBSE|            1257          20.069                               0.257E+004
 RTBSE|            1258          19.972                               0.257E+004
 RTBSE|            1259          20.072                               0.257E+004
 RTBSE|            1260          20.143                               0.257E+004
 RTBSE|            1261          20.092                               0.257E+004
 RTBSE|            1262          20.146                               0.257E+004
 RTBSE|            1263          20.097                               0.257E+004
 RTBSE|            1264          20.088                               0.257E+004
 RTBSE|            1265          20.196                               0.257E+004
 RTBSE|            1266          20.091                               0.257E+004
 RTBSE|            1267          19.979                               0.257E+004
 RTBSE|            1268          20.078                               0.257E+004
 RTBSE|            1269          20.084                               0.257E+004
 RTBSE|            1270          20.157                               0.257E+004
 RTBSE|            1271          20.182                               0.257E+004
 RTBSE|            1272          20.015                               0.257E+004
 RTBSE|            1273          20.070                               0.257E+004
 RTBSE|            1274          20.087                               0.257E+004
 RTBSE|            1275          20.153                               0.257E+004
 RTBSE|            1276          20.056                               0.257E+004
 RTBSE|            1277          20.221                               0.257E+004
 RTBSE|            1278          20.055                               0.257E+004
 RTBSE|            1279          20.103                               0.257E+004
 RTBSE|            1280          20.072                               0.257E+004
 RTBSE|            1281          20.124                               0.257E+004
 RTBSE|            1282          20.077                               0.257E+004
 RTBSE|            1283          20.058                               0.257E+004
 RTBSE|            1284          20.093                               0.257E+004
 RTBSE|            1285          20.041                               0.257E+004
 RTBSE|            1286          20.018                               0.257E+004
 RTBSE|            1287          20.032                               0.257E+004
 RTBSE|            1288          20.054                               0.257E+004
 RTBSE|            1289          20.058                               0.257E+004
 RTBSE|            1290          20.085                               0.257E+004
 RTBSE|            1291          20.129                               0.257E+004
 RTBSE|            1292          20.021                               0.257E+004
 RTBSE|            1293          20.179                               0.257E+004
 RTBSE|            1294          20.034                               0.257E+004
 RTBSE|            1295          20.021                               0.257E+004
 RTBSE|            1296          20.118                               0.257E+004
 RTBSE|            1297          20.025                               0.257E+004
 RTBSE|            1298          20.027                               0.257E+004
 RTBSE|            1299          20.217                               0.257E+004
 RTBSE|            1300          20.080                               0.257E+004
 RTBSE|            1301          20.059                               0.257E+004
 RTBSE|            1302          20.150                               0.257E+004
 RTBSE|            1303          20.084                               0.257E+004
 RTBSE|            1304          20.070                               0.257E+004
 RTBSE|            1305          20.055                               0.257E+004
 RTBSE|            1306          20.029                               0.257E+004
 RTBSE|            1307          20.012                               0.257E+004
 RTBSE|            1308          20.139                               0.257E+004
 RTBSE|            1309          20.086                               0.257E+004
 RTBSE|            1310          20.007                               0.257E+004
 RTBSE|            1311          20.066                               0.257E+004
 RTBSE|            1312          20.088                               0.257E+004
 RTBSE|            1313          20.010                               0.257E+004
 RTBSE|            1314          20.089                               0.257E+004
 RTBSE|            1315          20.092                               0.257E+004
 RTBSE|            1316          20.025                               0.257E+004
 RTBSE|            1317          19.989                               0.257E+004
 RTBSE|            1318          20.041                               0.257E+004
 RTBSE|            1319          20.046                               0.257E+004
 RTBSE|            1320          20.076                               0.257E+004
 RTBSE|            1321          20.096                               0.257E+004
 RTBSE|            1322          20.065                               0.257E+004
 RTBSE|            1323          20.200                               0.257E+004
 RTBSE|            1324          20.129                               0.257E+004
 RTBSE|            1325          20.079                               0.257E+004
 RTBSE|            1326          20.099                               0.257E+004
 RTBSE|            1327          20.069                               0.257E+004
 RTBSE|            1328          20.132                               0.257E+004
 RTBSE|            1329          20.216                               0.257E+004
 RTBSE|            1330          20.102                               0.257E+004
 RTBSE|            1331          20.003                               0.257E+004
 RTBSE|            1332          20.148                               0.257E+004
 RTBSE|            1333          20.140                               0.257E+004
 RTBSE|            1334          20.039                               0.257E+004
 RTBSE|            1335          19.991                               0.257E+004
 RTBSE|            1336          20.077                               0.257E+004
 RTBSE|            1337          20.146                               0.257E+004
 RTBSE|            1338          20.061                               0.257E+004
 RTBSE|            1339          20.112                               0.257E+004
 RTBSE|            1340          20.163                               0.257E+004
 RTBSE|            1341          20.019                               0.257E+004
 RTBSE|            1342          20.134                               0.257E+004
 RTBSE|            1343          20.031                               0.257E+004
 RTBSE|            1344          20.019                               0.257E+004
 RTBSE|            1345          20.038                               0.257E+004
 RTBSE|            1346          20.047                               0.257E+004
 RTBSE|            1347          20.037                               0.257E+004
 RTBSE|            1348          20.130                               0.257E+004
 RTBSE|            1349          20.051                               0.257E+004
 RTBSE|            1350          20.116                               0.257E+004
 RTBSE|            1351          20.105                               0.257E+004
 RTBSE|            1352          20.055                               0.257E+004
 RTBSE|            1353          19.981                               0.257E+004
 RTBSE|            1354          20.166                               0.257E+004
 RTBSE|            1355          20.041                               0.257E+004
 RTBSE|            1356          20.181                               0.257E+004
 RTBSE|            1357          20.087                               0.257E+004
 RTBSE|            1358          20.177                               0.257E+004
 RTBSE|            1359          20.127                               0.257E+004
 RTBSE|            1360          20.032                               0.257E+004
 RTBSE|            1361          20.092                               0.257E+004
 RTBSE|            1362          20.044                               0.257E+004
 RTBSE|            1363          20.130                               0.257E+004
 RTBSE|            1364          20.108                               0.257E+004
 RTBSE|            1365          20.048                               0.257E+004
 RTBSE|            1366          20.136                               0.257E+004
 RTBSE|            1367          20.077                               0.257E+004
 RTBSE|            1368          20.041                               0.257E+004
 RTBSE|            1369          20.158                               0.257E+004
 RTBSE|            1370          20.142                               0.257E+004
 RTBSE|            1371          20.042                               0.257E+004
 RTBSE|            1372          20.094                               0.257E+004
 RTBSE|            1373          20.102                               0.257E+004
 RTBSE|            1374          19.998                               0.257E+004
 RTBSE|            1375          20.106                               0.257E+004
 RTBSE|            1376          20.141                               0.257E+004
 RTBSE|            1377          19.986                               0.257E+004
 RTBSE|            1378          20.157                               0.257E+004
 RTBSE|            1379          20.132                               0.257E+004
 RTBSE|            1380          20.051                               0.257E+004
 RTBSE|            1381          20.220                               0.257E+004
 RTBSE|            1382          20.212                               0.257E+004
 RTBSE|            1383          19.998                               0.257E+004
 RTBSE|            1384          20.111                               0.257E+004
 RTBSE|            1385          20.084                               0.257E+004
 RTBSE|            1386          20.079                               0.257E+004
 RTBSE|            1387          20.159                               0.257E+004
 RTBSE|            1388          20.104                               0.257E+004
 RTBSE|            1389          20.086                               0.257E+004
 RTBSE|            1390          20.085                               0.257E+004
 RTBSE|            1391          20.073                               0.257E+004
 RTBSE|            1392          20.015                               0.257E+004
 RTBSE|            1393          20.169                               0.257E+004
 RTBSE|            1394          20.093                               0.257E+004
 RTBSE|            1395          20.085                               0.257E+004
 RTBSE|            1396          20.103                               0.257E+004
 RTBSE|            1397          20.178                               0.257E+004
 RTBSE|            1398          20.089                               0.257E+004
 RTBSE|            1399          19.993                               0.257E+004
 RTBSE|            1400          20.106                               0.257E+004
 RTBSE|            1401          20.039                               0.257E+004
 RTBSE|            1402          20.092                               0.257E+004
 RTBSE|            1403          20.137                               0.257E+004
 RTBSE|            1404          20.081                               0.257E+004
 RTBSE|            1405          20.146                               0.257E+004
 RTBSE|            1406          21.881                               0.257E+004
 RTBSE|            1407          20.122                               0.257E+004
 RTBSE|            1408          20.129                               0.257E+004
 RTBSE|            1409          20.102                               0.257E+004
 RTBSE|            1410          20.147                               0.257E+004
 RTBSE|            1411          20.007                               0.257E+004
 RTBSE|            1412          20.130                               0.257E+004
 RTBSE|            1413          20.055                               0.257E+004
 RTBSE|            1414          19.978                               0.257E+004
 RTBSE|            1415          20.100                               0.257E+004
 RTBSE|            1416          20.058                               0.257E+004
 RTBSE|            1417          20.045                               0.257E+004
 RTBSE|            1418          20.071                               0.257E+004
 RTBSE|            1419          20.041                               0.257E+004
 RTBSE|            1420          19.985                               0.257E+004
 RTBSE|            1421          20.062                               0.257E+004
 RTBSE|            1422          19.960                               0.257E+004
 RTBSE|            1423          20.099                               0.257E+004
 RTBSE|            1424          20.119                               0.257E+004
 RTBSE|            1425          20.097                               0.257E+004
 RTBSE|            1426          20.001                               0.257E+004
 RTBSE|            1427          20.002                               0.257E+004
 RTBSE|            1428          20.093                               0.257E+004
 RTBSE|            1429          20.093                               0.257E+004
 RTBSE|            1430          20.035                               0.257E+004
 RTBSE|            1431          20.093                               0.257E+004
 RTBSE|            1432          20.056                               0.257E+004
 RTBSE|            1433          20.129                               0.257E+004
 RTBSE|            1434          20.033                               0.257E+004
 RTBSE|            1435          19.985                               0.257E+004
 RTBSE|            1436          20.055                               0.257E+004
 RTBSE|            1437          20.087                               0.257E+004
 RTBSE|            1438          19.989                               0.257E+004
 RTBSE|            1439          20.039                               0.257E+004
 RTBSE|            1440          20.143                               0.257E+004
 RTBSE|            1441          20.119                               0.257E+004
 RTBSE|            1442          20.078                               0.257E+004
 RTBSE|            1443          20.116                               0.257E+004
 RTBSE|            1444          21.735                               0.257E+004
 RTBSE|            1445          20.049                               0.257E+004
 RTBSE|            1446          20.118                               0.257E+004
 RTBSE|            1447          20.157                               0.257E+004
 RTBSE|            1448          20.103                               0.257E+004
 RTBSE|            1449          20.137                               0.257E+004
 RTBSE|            1450          20.079                               0.257E+004
 RTBSE|            1451          20.025                               0.257E+004
 RTBSE|            1452          20.106                               0.257E+004
 RTBSE|            1453          19.971                               0.257E+004
 RTBSE|            1454          20.056                               0.257E+004
 RTBSE|            1455          20.216                               0.257E+004
 RTBSE|            1456          20.091                               0.257E+004
 RTBSE|            1457          20.067                               0.257E+004
 RTBSE|            1458          20.026                               0.257E+004
 RTBSE|            1459          20.107                               0.257E+004
 RTBSE|            1460          19.935                               0.257E+004
 RTBSE|            1461          20.214                               0.257E+004
 RTBSE|            1462          20.037                               0.257E+004
 RTBSE|            1463          20.083                               0.257E+004
 RTBSE|            1464          20.086                               0.257E+004
 RTBSE|            1465          20.020                               0.257E+004
 RTBSE|            1466          20.219                               0.257E+004
 RTBSE|            1467          20.126                               0.257E+004
 RTBSE|            1468          20.031                               0.257E+004
 RTBSE|            1469          20.029                               0.257E+004
 RTBSE|            1470          20.117                               0.257E+004
 RTBSE|            1471          20.101                               0.257E+004
 RTBSE|            1472          20.049                               0.257E+004
 RTBSE|            1473          20.123                               0.257E+004
 RTBSE|            1474          20.079                               0.257E+004
 RTBSE|            1475          20.012                               0.257E+004
 RTBSE|            1476          20.118                               0.257E+004
 RTBSE|            1477          20.132                               0.257E+004
 RTBSE|            1478          20.025                               0.257E+004
 RTBSE|            1479          20.057                               0.257E+004
 RTBSE|            1480          20.081                               0.257E+004
 RTBSE|            1481          20.148                               0.257E+004
 RTBSE|            1482          20.150                               0.257E+004
 RTBSE|            1483          20.062                               0.257E+004
 RTBSE|            1484          19.981                               0.257E+004
 RTBSE|            1485          20.161                               0.257E+004
 RTBSE|            1486          20.044                               0.257E+004
 RTBSE|            1487          20.001                               0.257E+004
 RTBSE|            1488          20.047                               0.257E+004
 RTBSE|            1489          20.084                               0.257E+004
 RTBSE|            1490          20.141                               0.257E+004
 RTBSE|            1491          20.100                               0.257E+004
 RTBSE|            1492          20.100                               0.257E+004
 RTBSE|            1493          19.992                               0.257E+004
 RTBSE|            1494          20.086                               0.257E+004
 RTBSE|            1495          20.020                               0.257E+004
 RTBSE|            1496          20.050                               0.257E+004
 RTBSE|            1497          20.092                               0.257E+004
 RTBSE|            1498          19.993                               0.257E+004
 RTBSE|            1499          20.004                               0.257E+004
 RTBSE|            1500          19.978                               0.257E+004
 RTBSE|            1501          20.114                               0.257E+004
 RTBSE|            1502          20.079                               0.257E+004
 RTBSE|            1503          20.124                               0.257E+004
 RTBSE|            1504          20.127                               0.257E+004
 RTBSE|            1505          19.973                               0.257E+004
 RTBSE|            1506          20.029                               0.257E+004
 RTBSE|            1507          20.075                               0.257E+004
 RTBSE|            1508          20.122                               0.257E+004
 RTBSE|            1509          20.043                               0.257E+004
 RTBSE|            1510          20.048                               0.257E+004
 RTBSE|            1511          20.012                               0.257E+004
 RTBSE|            1512          19.999                               0.257E+004
 RTBSE|            1513          20.095                               0.257E+004
 RTBSE|            1514          20.048                               0.257E+004
 RTBSE|            1515          20.055                               0.257E+004
 RTBSE|            1516          20.100                               0.257E+004
 RTBSE|            1517          20.057                               0.257E+004
 RTBSE|            1518          19.991                               0.257E+004
 RTBSE|            1519          20.066                               0.257E+004
 RTBSE|            1520          19.976                               0.257E+004
 RTBSE|            1521          20.037                               0.257E+004
 RTBSE|            1522          20.121                               0.257E+004
 RTBSE|            1523          19.991                               0.257E+004
 RTBSE|            1524          20.094                               0.257E+004
 RTBSE|            1525          20.131                               0.257E+004
 RTBSE|            1526          20.062                               0.257E+004
 RTBSE|            1527          20.182                               0.257E+004
 RTBSE|            1528          20.121                               0.257E+004
 RTBSE|            1529          19.983                               0.257E+004
 RTBSE|            1530          20.157                               0.257E+004
 RTBSE|            1531          20.095                               0.257E+004
 RTBSE|            1532          20.093                               0.257E+004
 RTBSE|            1533          20.193                               0.257E+004
 RTBSE|            1534          20.067                               0.257E+004
 RTBSE|            1535          20.111                               0.257E+004
 RTBSE|            1536          20.118                               0.257E+004
 RTBSE|            1537          20.094                               0.257E+004
 RTBSE|            1538          20.071                               0.257E+004
 RTBSE|            1539          19.994                               0.257E+004
 RTBSE|            1540          19.983                               0.257E+004
 RTBSE|            1541          20.035                               0.257E+004
 RTBSE|            1542          20.035                               0.257E+004
 RTBSE|            1543          20.131                               0.257E+004
 RTBSE|            1544          20.098                               0.257E+004
 RTBSE|            1545          20.050                               0.257E+004
 RTBSE|            1546          20.039                               0.257E+004
 RTBSE|            1547          20.154                               0.257E+004
 RTBSE|            1548          20.190                               0.257E+004
 RTBSE|            1549          20.072                               0.257E+004
 RTBSE|            1550          20.061                               0.257E+004
 RTBSE|            1551          20.047                               0.257E+004
 RTBSE|            1552          20.022                               0.257E+004
 RTBSE|            1553          20.051                               0.257E+004
 RTBSE|            1554          20.106                               0.257E+004
 RTBSE|            1555          20.052                               0.257E+004
 RTBSE|            1556          20.177                               0.257E+004
 RTBSE|            1557          20.124                               0.257E+004
 RTBSE|            1558          20.103                               0.257E+004
 RTBSE|            1559          20.058                               0.257E+004
 RTBSE|            1560          20.100                               0.257E+004
 RTBSE|            1561          20.072                               0.257E+004
 RTBSE|            1562          20.090                               0.257E+004
 RTBSE|            1563          20.161                               0.257E+004
 RTBSE|            1564          20.041                               0.257E+004
 RTBSE|            1565          20.026                               0.257E+004
 RTBSE|            1566          20.087                               0.257E+004
 RTBSE|            1567          20.045                               0.257E+004
 RTBSE|            1568          20.089                               0.257E+004
 RTBSE|            1569          20.092                               0.257E+004
 RTBSE|            1570          20.122                               0.257E+004
 RTBSE|            1571          20.326                               0.257E+004
 RTBSE|            1572          21.063                               0.257E+004
 RTBSE|            1573          20.078                               0.257E+004
 RTBSE|            1574          19.997                               0.257E+004
 RTBSE|            1575          19.934                               0.257E+004
 RTBSE|            1576          20.013                               0.257E+004
 RTBSE|            1577          20.085                               0.257E+004
 RTBSE|            1578          20.053                               0.257E+004
 RTBSE|            1579          20.075                               0.257E+004
 RTBSE|            1580          20.109                               0.257E+004
 RTBSE|            1581          20.053                               0.257E+004
 RTBSE|            1582          20.068                               0.257E+004
 RTBSE|            1583          20.033                               0.257E+004
 RTBSE|            1584          20.004                               0.257E+004
 RTBSE|            1585          20.087                               0.257E+004
 RTBSE|            1586          20.062                               0.257E+004
 RTBSE|            1587          20.084                               0.257E+004
 RTBSE|            1588          19.988                               0.257E+004
 RTBSE|            1589          21.583                               0.257E+004
 RTBSE|            1590          20.026                               0.257E+004
 RTBSE|            1591          20.012                               0.257E+004
 RTBSE|            1592          20.108                               0.257E+004
 RTBSE|            1593          20.111                               0.257E+004
 RTBSE|            1594          19.978                               0.257E+004
 RTBSE|            1595          20.127                               0.257E+004
 RTBSE|            1596          20.112                               0.257E+004
 RTBSE|            1597          20.046                               0.257E+004
 RTBSE|            1598          20.030                               0.257E+004
 RTBSE|            1599          20.143                               0.257E+004
 RTBSE|            1600          20.026                               0.257E+004
 RTBSE|            1601          20.057                               0.257E+004
 RTBSE|            1602          20.063                               0.257E+004
 RTBSE|            1603          20.027                               0.257E+004
 RTBSE|            1604          20.154                               0.257E+004
 RTBSE|            1605          20.128                               0.257E+004
 RTBSE|            1606          19.989                               0.257E+004
 RTBSE|            1607          20.083                               0.257E+004
 RTBSE|            1608          20.119                               0.257E+004
 RTBSE|            1609          20.007                               0.257E+004
 RTBSE|            1610          20.027                               0.257E+004
 RTBSE|            1611          20.103                               0.257E+004
 RTBSE|            1612          20.128                               0.257E+004
 RTBSE|            1613          20.065                               0.257E+004
 RTBSE|            1614          20.066                               0.257E+004
 RTBSE|            1615          20.066                               0.257E+004
 RTBSE|            1616          20.145                               0.257E+004
 RTBSE|            1617          20.131                               0.257E+004
 RTBSE|            1618          20.121                               0.257E+004
 RTBSE|            1619          20.079                               0.257E+004
 RTBSE|            1620          20.020                               0.257E+004
 RTBSE|            1621          20.043                               0.257E+004
 RTBSE|            1622          19.974                               0.257E+004
 RTBSE|            1623          20.134                               0.257E+004
 RTBSE|            1624          20.097                               0.257E+004
 RTBSE|            1625          20.042                               0.257E+004
 RTBSE|            1626          20.095                               0.257E+004
 RTBSE|            1627          20.045                               0.257E+004
 RTBSE|            1628          20.062                               0.257E+004
 RTBSE|            1629          20.201                               0.257E+004
 RTBSE|            1630          20.088                               0.257E+004
 RTBSE|            1631          20.014                               0.257E+004
 RTBSE|            1632          20.135                               0.257E+004
 RTBSE|            1633          20.052                               0.257E+004
 RTBSE|            1634          20.057                               0.257E+004
 RTBSE|            1635          20.078                               0.257E+004
 RTBSE|            1636          19.966                               0.257E+004
 RTBSE|            1637          20.070                               0.257E+004
 RTBSE|            1638          20.153                               0.257E+004
 RTBSE|            1639          20.057                               0.257E+004
 RTBSE|            1640          20.137                               0.257E+004
 RTBSE|            1641          20.104                               0.257E+004
 RTBSE|            1642          20.150                               0.257E+004
 RTBSE|            1643          20.087                               0.257E+004
 RTBSE|            1644          20.154                               0.257E+004
 RTBSE|            1645          20.122                               0.257E+004
 RTBSE|            1646          20.039                               0.257E+004
 RTBSE|            1647          20.116                               0.257E+004
 RTBSE|            1648          20.058                               0.257E+004
 RTBSE|            1649          20.081                               0.257E+004
 RTBSE|            1650          20.055                               0.257E+004
 RTBSE|            1651          20.098                               0.257E+004
 RTBSE|            1652          20.053                               0.257E+004
 RTBSE|            1653          20.037                               0.257E+004
 RTBSE|            1654          20.080                               0.257E+004
 RTBSE|            1655          20.178                               0.257E+004
 RTBSE|            1656          20.115                               0.257E+004
 RTBSE|            1657          20.103                               0.257E+004
 RTBSE|            1658          20.097                               0.257E+004
 RTBSE|            1659          20.103                               0.257E+004
 RTBSE|            1660          20.015                               0.257E+004
 RTBSE|            1661          20.005                               0.257E+004
 RTBSE|            1662          20.102                               0.257E+004
 RTBSE|            1663          20.151                               0.257E+004
 RTBSE|            1664          20.074                               0.257E+004
 RTBSE|            1665          20.057                               0.257E+004
 RTBSE|            1666          20.130                               0.257E+004
 RTBSE|            1667          20.078                               0.257E+004
 RTBSE|            1668          20.049                               0.257E+004
 RTBSE|            1669          20.132                               0.257E+004
 RTBSE|            1670          20.025                               0.257E+004
 RTBSE|            1671          20.115                               0.257E+004
 RTBSE|            1672          20.111                               0.257E+004
 RTBSE|            1673          20.085                               0.257E+004
 RTBSE|            1674          20.050                               0.257E+004
 RTBSE|            1675          20.001                               0.257E+004
 RTBSE|            1676          20.074                               0.257E+004
 RTBSE|            1677          20.066                               0.257E+004
 RTBSE|            1678          20.133                               0.257E+004
 RTBSE|            1679          20.065                               0.257E+004
 RTBSE|            1680          20.062                               0.257E+004
 RTBSE|            1681          20.151                               0.257E+004
 RTBSE|            1682          20.051                               0.257E+004
 RTBSE|            1683          20.020                               0.257E+004
 RTBSE|            1684          20.017                               0.257E+004
 RTBSE|            1685          20.180                               0.257E+004
 RTBSE|            1686          20.053                               0.257E+004
 RTBSE|            1687          20.063                               0.257E+004
 RTBSE|            1688          20.018                               0.257E+004
 RTBSE|            1689          20.070                               0.257E+004
 RTBSE|            1690          20.075                               0.257E+004
 RTBSE|            1691          20.078                               0.257E+004
 RTBSE|            1692          20.086                               0.257E+004
 RTBSE|            1693          20.129                               0.257E+004
 RTBSE|            1694          20.188                               0.257E+004
 RTBSE|            1695          20.044                               0.257E+004
 RTBSE|            1696          20.152                               0.257E+004
 RTBSE|            1697          20.146                               0.257E+004
 RTBSE|            1698          20.048                               0.257E+004
 RTBSE|            1699          20.159                               0.257E+004
 RTBSE|            1700          20.054                               0.257E+004
 RTBSE|            1701          19.968                               0.257E+004
 RTBSE|            1702          20.108                               0.257E+004
 RTBSE|            1703          20.081                               0.257E+004
 RTBSE|            1704          20.038                               0.257E+004
 RTBSE|            1705          20.094                               0.257E+004
 RTBSE|            1706          20.074                               0.257E+004
 RTBSE|            1707          20.066                               0.257E+004
 RTBSE|            1708          20.132                               0.257E+004
 RTBSE|            1709          20.211                               0.257E+004
 RTBSE|            1710          20.092                               0.257E+004
 RTBSE|            1711          20.143                               0.257E+004
 RTBSE|            1712          20.094                               0.257E+004
 RTBSE|            1713          19.985                               0.257E+004
 RTBSE|            1714          20.080                               0.257E+004
 RTBSE|            1715          20.150                               0.257E+004
 RTBSE|            1716          20.119                               0.257E+004
 RTBSE|            1717          20.024                               0.257E+004
 RTBSE|            1718          20.139                               0.257E+004
 RTBSE|            1719          19.978                               0.257E+004
 RTBSE|            1720          20.056                               0.257E+004
 RTBSE|            1721          20.210                               0.257E+004
 RTBSE|            1722          20.066                               0.257E+004
 RTBSE|            1723          19.970                               0.257E+004
 RTBSE|            1724          20.096                               0.257E+004
 RTBSE|            1725          19.972                               0.257E+004
 RTBSE|            1726          20.030                               0.257E+004
 RTBSE|            1727          20.131                               0.257E+004
 RTBSE|            1728          20.099                               0.257E+004
 RTBSE|            1729          20.067                               0.257E+004
 RTBSE|            1730          20.227                               0.257E+004
 RTBSE|            1731          20.013                               0.257E+004
 RTBSE|            1732          20.143                               0.257E+004
 RTBSE|            1733          20.146                               0.257E+004
 RTBSE|            1734          20.078                               0.257E+004
 RTBSE|            1735          20.016                               0.257E+004
 RTBSE|            1736          20.090                               0.257E+004
 RTBSE|            1737          20.098                               0.257E+004
 RTBSE|            1738          20.102                               0.257E+004
 RTBSE|            1739          20.080                               0.257E+004
 RTBSE|            1740          20.162                               0.257E+004
 RTBSE|            1741          20.086                               0.257E+004
 RTBSE|            1742          20.061                               0.257E+004
 RTBSE|            1743          20.043                               0.257E+004
 RTBSE|            1744          20.000                               0.257E+004
 RTBSE|            1745          20.153                               0.257E+004
 RTBSE|            1746          20.125                               0.257E+004
 RTBSE|            1747          19.995                               0.257E+004
 RTBSE|            1748          20.113                               0.257E+004
 RTBSE|            1749          20.079                               0.257E+004
 RTBSE|            1750          20.079                               0.257E+004
 RTBSE|            1751          20.096                               0.257E+004
 RTBSE|            1752          20.020                               0.257E+004
 RTBSE|            1753          20.086                               0.257E+004
 RTBSE|            1754          20.114                               0.257E+004
 RTBSE|            1755          20.073                               0.257E+004
 RTBSE|            1756          20.160                               0.257E+004
 RTBSE|            1757          20.198                               0.257E+004
 RTBSE|            1758          20.051                               0.257E+004
 RTBSE|            1759          20.095                               0.257E+004
 RTBSE|            1760          20.080                               0.257E+004
 RTBSE|            1761          20.063                               0.257E+004
 RTBSE|            1762          20.020                               0.257E+004
 RTBSE|            1763          20.154                               0.257E+004
 RTBSE|            1764          20.055                               0.257E+004
 RTBSE|            1765          19.974                               0.257E+004
 RTBSE|            1766          20.187                               0.257E+004
 RTBSE|            1767          20.047                               0.257E+004
 RTBSE|            1768          20.003                               0.257E+004
 RTBSE|            1769          20.108                               0.257E+004
 RTBSE|            1770          20.100                               0.257E+004
 RTBSE|            1771          20.073                               0.257E+004
 RTBSE|            1772          20.080                               0.257E+004
 RTBSE|            1773          20.120                               0.257E+004
 RTBSE|            1774          20.229                               0.257E+004
 RTBSE|            1775          20.193                               0.257E+004
 RTBSE|            1776          20.135                               0.257E+004
 RTBSE|            1777          20.163                               0.257E+004
 RTBSE|            1778          20.205                               0.257E+004
 RTBSE|            1779          20.106                               0.257E+004
 RTBSE|            1780          19.995                               0.257E+004
 RTBSE|            1781          20.021                               0.257E+004
 RTBSE|            1782          20.149                               0.257E+004
 RTBSE|            1783          20.111                               0.257E+004
 RTBSE|            1784          20.133                               0.257E+004
 RTBSE|            1785          20.045                               0.257E+004
 RTBSE|            1786          20.143                               0.257E+004
 RTBSE|            1787          20.120                               0.257E+004
 RTBSE|            1788          20.067                               0.257E+004
 RTBSE|            1789          19.995                               0.257E+004
 RTBSE|            1790          20.056                               0.257E+004
 RTBSE|            1791          20.162                               0.257E+004
 RTBSE|            1792          20.135                               0.257E+004
 RTBSE|            1793          21.610                               0.257E+004
 RTBSE|            1794          20.072                               0.257E+004
 RTBSE|            1795          20.026                               0.257E+004
 RTBSE|            1796          20.094                               0.257E+004
 RTBSE|            1797          20.168                               0.257E+004
 RTBSE|            1798          20.140                               0.257E+004
 RTBSE|            1799          20.040                               0.257E+004
 RTBSE|            1800          20.069                               0.257E+004
 RTBSE|            1801          20.119                               0.257E+004
 RTBSE|            1802          20.012                               0.257E+004
 RTBSE|            1803          20.228                               0.257E+004
 RTBSE|            1804          20.151                               0.257E+004
 RTBSE|            1805          20.024                               0.257E+004
 RTBSE|            1806          20.109                               0.257E+004
 RTBSE|            1807          20.036                               0.257E+004
 RTBSE|            1808          20.054                               0.257E+004
 RTBSE|            1809          20.147                               0.257E+004
 RTBSE|            1810          20.119                               0.257E+004
 RTBSE|            1811          19.979                               0.257E+004
 RTBSE|            1812          20.077                               0.257E+004
 RTBSE|            1813          20.188                               0.257E+004
 RTBSE|            1814          20.099                               0.257E+004
 RTBSE|            1815          21.690                               0.257E+004
 RTBSE|            1816          20.121                               0.257E+004
 RTBSE|            1817          19.969                               0.257E+004
 RTBSE|            1818          19.995                               0.257E+004
 RTBSE|            1819          20.074                               0.257E+004
 RTBSE|            1820          20.038                               0.257E+004
 RTBSE|            1821          20.056                               0.257E+004
 RTBSE|            1822          20.030                               0.257E+004
 RTBSE|            1823          19.994                               0.257E+004
 RTBSE|            1824          20.078                               0.257E+004
 RTBSE|            1825          20.035                               0.257E+004
 RTBSE|            1826          20.073                               0.257E+004
 RTBSE|            1827          20.081                               0.257E+004
 RTBSE|            1828          20.228                               0.257E+004
 RTBSE|            1829          19.959                               0.257E+004
 RTBSE|            1830          20.027                               0.257E+004
 RTBSE|            1831          20.133                               0.257E+004
 RTBSE|            1832          19.922                               0.257E+004
 RTBSE|            1833          20.044                               0.257E+004
 RTBSE|            1834          20.101                               0.257E+004
 RTBSE|            1835          20.031                               0.257E+004
 RTBSE|            1836          19.955                               0.257E+004
 RTBSE|            1837          20.072                               0.257E+004
 RTBSE|            1838          20.047                               0.257E+004
 RTBSE|            1839          19.989                               0.257E+004
 RTBSE|            1840          20.034                               0.257E+004
 RTBSE|            1841          19.992                               0.257E+004
 RTBSE|            1842          19.996                               0.257E+004
 RTBSE|            1843          20.029                               0.257E+004
 RTBSE|            1844          21.905                               0.257E+004
 RTBSE|            1845          19.989                               0.257E+004
 RTBSE|            1846          20.108                               0.257E+004
 RTBSE|            1847          21.661                               0.257E+004
 RTBSE|            1848          20.066                               0.257E+004
 RTBSE|            1849          20.092                               0.257E+004
 RTBSE|            1850          19.944                               0.257E+004
 RTBSE|            1851          19.956                               0.257E+004
 RTBSE|            1852          20.078                               0.257E+004
 RTBSE|            1853          20.175                               0.257E+004
 RTBSE|            1854          19.986                               0.257E+004
 RTBSE|            1855          19.988                               0.257E+004
 RTBSE|            1856          20.045                               0.257E+004
 RTBSE|            1857          20.126                               0.257E+004
 RTBSE|            1858          20.103                               0.257E+004
 RTBSE|            1859          19.999                               0.257E+004
 RTBSE|            1860          19.944                               0.257E+004
 RTBSE|            1861          20.001                               0.257E+004
 RTBSE|            1862          20.098                               0.257E+004
 RTBSE|            1863          20.051                               0.257E+004
 RTBSE|            1864          20.080                               0.257E+004
 RTBSE|            1865          20.101                               0.257E+004
 RTBSE|            1866          19.979                               0.257E+004
 RTBSE|            1867          20.034                               0.257E+004
 RTBSE|            1868          20.080                               0.257E+004
 RTBSE|            1869          20.079                               0.257E+004
 RTBSE|            1870          20.089                               0.257E+004
 RTBSE|            1871          20.109                               0.257E+004
 RTBSE|            1872          20.032                               0.257E+004
 RTBSE|            1873          20.127                               0.257E+004
 RTBSE|            1874          20.105                               0.257E+004
 RTBSE|            1875          20.106                               0.257E+004
 RTBSE|            1876          20.018                               0.257E+004
 RTBSE|            1877          20.271                               0.257E+004
 RTBSE|            1878          20.103                               0.257E+004
 RTBSE|            1879          20.181                               0.257E+004
 RTBSE|            1880          20.055                               0.257E+004
 RTBSE|            1881          20.050                               0.257E+004
 RTBSE|            1882          20.086                               0.257E+004
 RTBSE|            1883          20.105                               0.257E+004
 RTBSE|            1884          20.078                               0.257E+004
 RTBSE|            1885          20.078                               0.257E+004
 RTBSE|            1886          20.046                               0.257E+004
 RTBSE|            1887          20.077                               0.257E+004
 RTBSE|            1888          20.081                               0.257E+004
 RTBSE|            1889          20.080                               0.257E+004
 RTBSE|            1890          20.044                               0.257E+004
 RTBSE|            1891          19.945                               0.257E+004
 RTBSE|            1892          20.015                               0.257E+004
 RTBSE|            1893          20.104                               0.257E+004
 RTBSE|            1894          20.043                               0.257E+004
 RTBSE|            1895          20.057                               0.257E+004
 RTBSE|            1896          19.985                               0.257E+004
 RTBSE|            1897          20.005                               0.257E+004
 RTBSE|            1898          20.115                               0.257E+004
 RTBSE|            1899          19.989                               0.257E+004
 RTBSE|            1900          20.049                               0.257E+004
 RTBSE|            1901          20.142                               0.257E+004
 RTBSE|            1902          20.014                               0.257E+004
 RTBSE|            1903          20.196                               0.257E+004
 RTBSE|            1904          20.081                               0.257E+004
 RTBSE|            1905          20.002                               0.257E+004
 RTBSE|            1906          20.015                               0.257E+004
 RTBSE|            1907          20.039                               0.257E+004
 RTBSE|            1908          19.923                               0.257E+004
 RTBSE|            1909          19.960                               0.257E+004
 RTBSE|            1910          20.032                               0.257E+004
 RTBSE|            1911          20.067                               0.257E+004
 RTBSE|            1912          20.007                               0.257E+004
 RTBSE|            1913          20.160                               0.257E+004
 RTBSE|            1914          20.059                               0.257E+004
 RTBSE|            1915          19.969                               0.257E+004
 RTBSE|            1916          20.007                               0.257E+004
 RTBSE|            1917          20.023                               0.257E+004
 RTBSE|            1918          20.116                               0.257E+004
 RTBSE|            1919          20.165                               0.257E+004
 RTBSE|            1920          20.117                               0.257E+004
 RTBSE|            1921          20.119                               0.257E+004
 RTBSE|            1922          20.086                               0.257E+004
 RTBSE|            1923          20.095                               0.257E+004
 RTBSE|            1924          20.008                               0.257E+004
 RTBSE|            1925          20.094                               0.257E+004
 RTBSE|            1926          20.144                               0.257E+004
 RTBSE|            1927          20.008                               0.257E+004
 RTBSE|            1928          20.114                               0.257E+004
 RTBSE|            1929          20.060                               0.257E+004
 RTBSE|            1930          20.097                               0.257E+004
 RTBSE|            1931          20.033                               0.257E+004
 RTBSE|            1932          20.105                               0.257E+004
 RTBSE|            1933          19.992                               0.257E+004
 RTBSE|            1934          20.064                               0.257E+004
 RTBSE|            1935          20.207                               0.257E+004
 RTBSE|            1936          20.146                               0.257E+004
 RTBSE|            1937          20.068                               0.257E+004
 RTBSE|            1938          20.231                               0.257E+004
 RTBSE|            1939          19.979                               0.257E+004
 RTBSE|            1940          20.015                               0.257E+004
 RTBSE|            1941          20.181                               0.257E+004
 RTBSE|            1942          19.970                               0.257E+004
 RTBSE|            1943          20.048                               0.257E+004
 RTBSE|            1944          20.232                               0.257E+004
 RTBSE|            1945          19.985                               0.257E+004
 RTBSE|            1946          20.064                               0.257E+004
 RTBSE|            1947          20.201                               0.257E+004
 RTBSE|            1948          20.087                               0.257E+004
 RTBSE|            1949          19.986                               0.257E+004
 RTBSE|            1950          20.049                               0.257E+004
 RTBSE|            1951          20.056                               0.257E+004
 RTBSE|            1952          20.074                               0.257E+004
 RTBSE|            1953          20.211                               0.257E+004
 RTBSE|            1954          20.047                               0.257E+004
 RTBSE|            1955          20.032                               0.257E+004
 RTBSE|            1956          20.069                               0.257E+004
 RTBSE|            1957          20.072                               0.257E+004
 RTBSE|            1958          19.974                               0.257E+004
 RTBSE|            1959          20.165                               0.257E+004
 RTBSE|            1960          20.094                               0.257E+004
 RTBSE|            1961          19.978                               0.257E+004
 RTBSE|            1962          20.218                               0.257E+004
 RTBSE|            1963          20.121                               0.257E+004
 RTBSE|            1964          20.067                               0.257E+004
 RTBSE|            1965          20.099                               0.257E+004
 RTBSE|            1966          20.051                               0.257E+004
 RTBSE|            1967          20.009                               0.257E+004
 RTBSE|            1968          20.183                               0.257E+004
 RTBSE|            1969          20.011                               0.257E+004
 RTBSE|            1970          19.970                               0.257E+004
 RTBSE|            1971          20.098                               0.257E+004
 RTBSE|            1972          20.048                               0.257E+004
 RTBSE|            1973          20.017                               0.257E+004
 RTBSE|            1974          20.105                               0.257E+004
 RTBSE|            1975          20.003                               0.257E+004
 RTBSE|            1976          19.989                               0.257E+004
 RTBSE|            1977          20.205                               0.257E+004
 RTBSE|            1978          20.057                               0.257E+004
 RTBSE|            1979          20.010                               0.257E+004
 RTBSE|            1980          20.166                               0.257E+004
 RTBSE|            1981          20.000                               0.257E+004
 RTBSE|            1982          20.036                               0.257E+004
 RTBSE|            1983          20.174                               0.257E+004
 RTBSE|            1984          20.034                               0.257E+004
 RTBSE|            1985          19.983                               0.257E+004
 RTBSE|            1986          20.084                               0.257E+004
 RTBSE|            1987          20.097                               0.257E+004
 RTBSE|            1988          20.076                               0.257E+004
 RTBSE|            1989          20.233                               0.257E+004
 RTBSE|            1990          20.137                               0.257E+004
 RTBSE|            1991          20.104                               0.257E+004
 RTBSE|            1992          20.131                               0.257E+004
 RTBSE|            1993          20.271                               0.257E+004
 RTBSE|            1994          20.064                               0.257E+004
 RTBSE|            1995          20.074                               0.257E+004
 RTBSE|            1996          20.131                               0.257E+004
 RTBSE|            1997          20.066                               0.257E+004
 RTBSE|            1998          20.106                               0.257E+004
 RTBSE|            1999          20.108                               0.257E+004
 RTBSE|            2000          19.959                               0.257E+004
 RTBSE|            2001          20.077                               0.257E+004
 RTBSE|            2002          20.140                               0.257E+004
 RTBSE|            2003          20.058                               0.257E+004
 RTBSE|            2004          20.130                               0.257E+004
 RTBSE|            2005          20.133                               0.257E+004
 RTBSE|            2006          20.030                               0.257E+004
 RTBSE|            2007          20.097                               0.257E+004
 RTBSE|            2008          20.153                               0.257E+004
 RTBSE|            2009          19.981                               0.257E+004
 RTBSE|            2010          19.994                               0.257E+004
 RTBSE|            2011          20.078                               0.257E+004
 RTBSE|            2012          20.032                               0.257E+004
 RTBSE|            2013          20.068                               0.257E+004
 RTBSE|            2014          20.080                               0.257E+004
 RTBSE|            2015          20.043                               0.257E+004
 RTBSE|            2016          20.013                               0.257E+004
 RTBSE|            2017          20.124                               0.257E+004
 RTBSE|            2018          20.113                               0.257E+004
 RTBSE|            2019          20.221                               0.257E+004
 RTBSE|            2020          20.127                               0.257E+004
 RTBSE|            2021          20.149                               0.257E+004
 RTBSE|            2022          20.056                               0.257E+004
 RTBSE|            2023          20.109                               0.257E+004
 RTBSE|            2024          20.026                               0.257E+004
 RTBSE|            2025          20.087                               0.257E+004
 RTBSE|            2026          20.242                               0.257E+004
 RTBSE|            2027          20.098                               0.257E+004
 RTBSE|            2028          20.115                               0.257E+004
 RTBSE|            2029          20.055                               0.257E+004
 RTBSE|            2030          20.061                               0.257E+004
 RTBSE|            2031          20.033                               0.257E+004
 RTBSE|            2032          20.095                               0.257E+004
 RTBSE|            2033          20.065                               0.257E+004
 RTBSE|            2034          20.070                               0.257E+004
 RTBSE|            2035          20.210                               0.257E+004
 RTBSE|            2036          20.112                               0.257E+004
 RTBSE|            2037          20.042                               0.257E+004
 RTBSE|            2038          20.957                               0.257E+004
 RTBSE|            2039          20.922                               0.257E+004
 RTBSE|            2040          20.082                               0.257E+004
 RTBSE|            2041          20.097                               0.257E+004
 RTBSE|            2042          20.088                               0.257E+004
 RTBSE|            2043          19.962                               0.257E+004
 RTBSE|            2044          20.133                               0.257E+004
 RTBSE|            2045          20.205                               0.257E+004
 RTBSE|            2046          20.085                               0.257E+004
 RTBSE|            2047          20.095                               0.257E+004
 RTBSE|            2048          20.103                               0.257E+004
 RTBSE|            2049          20.026                               0.257E+004
 RTBSE|            2050          20.099                               0.257E+004
 RTBSE|            2051          20.068                               0.257E+004
 RTBSE|            2052          20.016                               0.257E+004
 RTBSE|            2053          20.056                               0.257E+004
 RTBSE|            2054          20.098                               0.257E+004
 RTBSE|            2055          20.098                               0.257E+004
 RTBSE|            2056          20.047                               0.257E+004
 RTBSE|            2057          20.149                               0.257E+004
 RTBSE|            2058          19.994                               0.257E+004
 RTBSE|            2059          20.046                               0.257E+004
 RTBSE|            2060          20.043                               0.257E+004
 RTBSE|            2061          20.044                               0.257E+004
 RTBSE|            2062          20.169                               0.257E+004
 RTBSE|            2063          20.135                               0.257E+004
 RTBSE|            2064          20.130                               0.257E+004
 RTBSE|            2065          20.024                               0.257E+004
 RTBSE|            2066          20.211                               0.257E+004
 RTBSE|            2067          20.079                               0.257E+004
 RTBSE|            2068          19.959                               0.257E+004
 RTBSE|            2069          20.153                               0.257E+004
 RTBSE|            2070          20.145                               0.257E+004
 RTBSE|            2071          19.960                               0.257E+004
 RTBSE|            2072          20.078                               0.257E+004
 RTBSE|            2073          20.049                               0.257E+004
 RTBSE|            2074          20.034                               0.257E+004
 RTBSE|            2075          20.129                               0.257E+004
 RTBSE|            2076          20.072                               0.257E+004
 RTBSE|            2077          20.121                               0.257E+004
 RTBSE|            2078          20.128                               0.257E+004
 RTBSE|            2079          20.085                               0.257E+004
 RTBSE|            2080          20.018                               0.257E+004
 RTBSE|            2081          20.079                               0.257E+004
 RTBSE|            2082          20.068                               0.257E+004
 RTBSE|            2083          20.052                               0.257E+004
 RTBSE|            2084          20.047                               0.257E+004
 RTBSE|            2085          20.108                               0.257E+004
 RTBSE|            2086          20.063                               0.257E+004
 RTBSE|            2087          20.159                               0.257E+004
 RTBSE|            2088          20.045                               0.257E+004
 RTBSE|            2089          20.010                               0.257E+004
 RTBSE|            2090          20.100                               0.257E+004
 RTBSE|            2091          20.086                               0.257E+004
 RTBSE|            2092          20.116                               0.257E+004
 RTBSE|            2093          20.417                               0.257E+004
 RTBSE|            2094          20.017                               0.257E+004
 RTBSE|            2095          20.043                               0.257E+004
 RTBSE|            2096          20.164                               0.257E+004
 RTBSE|            2097          20.122                               0.257E+004
 RTBSE|            2098          19.962                               0.257E+004
 RTBSE|            2099          20.011                               0.257E+004
 RTBSE|            2100          19.987                               0.257E+004
 RTBSE|            2101          19.966                               0.257E+004
 RTBSE|            2102          20.078                               0.257E+004
 RTBSE|            2103          20.083                               0.257E+004
 RTBSE|            2104          20.029                               0.257E+004
 RTBSE|            2105          20.095                               0.257E+004
 RTBSE|            2106          20.084                               0.257E+004
 RTBSE|            2107          20.044                               0.257E+004
 RTBSE|            2108          20.068                               0.257E+004
 RTBSE|            2109          20.136                               0.257E+004
 RTBSE|            2110          19.952                               0.257E+004
 RTBSE|            2111          20.206                               0.257E+004
 RTBSE|            2112          20.151                               0.257E+004
 RTBSE|            2113          20.041                               0.257E+004
 RTBSE|            2114          20.012                               0.257E+004
 RTBSE|            2115          20.086                               0.257E+004
 RTBSE|            2116          20.042                               0.257E+004
 RTBSE|            2117          20.119                               0.257E+004
 RTBSE|            2118          20.023                               0.257E+004
 RTBSE|            2119          19.993                               0.257E+004
 RTBSE|            2120          20.073                               0.257E+004
 RTBSE|            2121          20.106                               0.257E+004
 RTBSE|            2122          20.044                               0.257E+004
 RTBSE|            2123          20.189                               0.257E+004
 RTBSE|            2124          20.128                               0.257E+004
 RTBSE|            2125          20.110                               0.257E+004
 RTBSE|            2126          20.116                               0.257E+004
 RTBSE|            2127          20.074                               0.257E+004
 RTBSE|            2128          20.067                               0.257E+004
 RTBSE|            2129          20.158                               0.257E+004
 RTBSE|            2130          20.211                               0.257E+004
 RTBSE|            2131          20.113                               0.257E+004
 RTBSE|            2132          20.088                               0.257E+004
 RTBSE|            2133          20.061                               0.257E+004
 RTBSE|            2134          20.047                               0.257E+004
 RTBSE|            2135          20.151                               0.257E+004
 RTBSE|            2136          20.146                               0.257E+004
 RTBSE|            2137          20.093                               0.257E+004
 RTBSE|            2138          20.086                               0.257E+004
 RTBSE|            2139          20.149                               0.257E+004
 RTBSE|            2140          19.989                               0.257E+004
 RTBSE|            2141          20.085                               0.257E+004
 RTBSE|            2142          20.116                               0.257E+004
 RTBSE|            2143          20.096                               0.257E+004
 RTBSE|            2144          20.083                               0.257E+004
 RTBSE|            2145          20.013                               0.257E+004
 RTBSE|            2146          20.055                               0.257E+004
 RTBSE|            2147          20.108                               0.257E+004
 RTBSE|            2148          20.169                               0.257E+004
 RTBSE|            2149          20.060                               0.257E+004
 RTBSE|            2150          20.061                               0.257E+004
 RTBSE|            2151          20.035                               0.257E+004
 RTBSE|            2152          20.132                               0.257E+004
 RTBSE|            2153          20.006                               0.257E+004
 RTBSE|            2154          20.072                               0.257E+004
 RTBSE|            2155          20.095                               0.257E+004
 RTBSE|            2156          20.097                               0.257E+004
 RTBSE|            2157          20.172                               0.257E+004
 RTBSE|            2158          20.064                               0.257E+004
 RTBSE|            2159          19.967                               0.257E+004
 RTBSE|            2160          20.074                               0.257E+004
 RTBSE|            2161          20.085                               0.257E+004
 RTBSE|            2162          20.068                               0.257E+004
 RTBSE|            2163          20.107                               0.257E+004
 RTBSE|            2164          20.077                               0.257E+004
 RTBSE|            2165          20.091                               0.257E+004
 RTBSE|            2166          20.045                               0.257E+004
 RTBSE|            2167          20.147                               0.257E+004
 RTBSE|            2168          20.097                               0.257E+004
 RTBSE|            2169          20.151                               0.257E+004
 RTBSE|            2170          20.075                               0.257E+004
 RTBSE|            2171          19.970                               0.257E+004
 RTBSE|            2172          20.108                               0.257E+004
 RTBSE|            2173          20.151                               0.257E+004
 RTBSE|            2174          20.023                               0.257E+004
 RTBSE|            2175          20.109                               0.257E+004
 RTBSE|            2176          20.213                               0.257E+004
 RTBSE|            2177          20.123                               0.257E+004
 RTBSE|            2178          20.085                               0.257E+004
 RTBSE|            2179          20.114                               0.257E+004
 RTBSE|            2180          20.003                               0.257E+004
 RTBSE|            2181          20.088                               0.257E+004
 RTBSE|            2182          21.729                               0.257E+004
 RTBSE|            2183          20.058                               0.257E+004
 RTBSE|            2184          20.083                               0.257E+004
 RTBSE|            2185          20.080                               0.257E+004
 RTBSE|            2186          20.043                               0.257E+004
 RTBSE|            2187          19.966                               0.257E+004
 RTBSE|            2188          20.130                               0.257E+004
 RTBSE|            2189          20.068                               0.257E+004
 RTBSE|            2190          20.047                               0.257E+004
 RTBSE|            2191          20.147                               0.257E+004
 RTBSE|            2192          20.118                               0.257E+004
 RTBSE|            2193          20.049                               0.257E+004
 RTBSE|            2194          20.127                               0.257E+004
 RTBSE|            2195          20.023                               0.257E+004
 RTBSE|            2196          20.042                               0.257E+004
 RTBSE|            2197          20.113                               0.257E+004
 RTBSE|            2198          20.048                               0.257E+004
 RTBSE|            2199          20.068                               0.257E+004
 RTBSE|            2200          20.131                               0.257E+004
 RTBSE|            2201          20.078                               0.257E+004
 RTBSE|            2202          20.051                               0.257E+004
 RTBSE|            2203          20.257                               0.257E+004
 RTBSE|            2204          20.134                               0.257E+004
 RTBSE|            2205          20.007                               0.257E+004
 RTBSE|            2206          20.082                               0.257E+004
 RTBSE|            2207          20.063                               0.257E+004
 RTBSE|            2208          19.977                               0.257E+004
 RTBSE|            2209          20.005                               0.257E+004
 RTBSE|            2210          20.141                               0.257E+004
 RTBSE|            2211          19.973                               0.257E+004
 RTBSE|            2212          20.059                               0.257E+004
 RTBSE|            2213          20.051                               0.257E+004
 RTBSE|            2214          19.959                               0.257E+004
 RTBSE|            2215          20.124                               0.257E+004
 RTBSE|            2216          20.095                               0.257E+004
 RTBSE|            2217          20.018                               0.257E+004
 RTBSE|            2218          20.093                               0.257E+004
 RTBSE|            2219          20.181                               0.257E+004
 RTBSE|            2220          20.205                               0.257E+004
 RTBSE|            2221          20.082                               0.257E+004
 RTBSE|            2222          20.085                               0.257E+004
 RTBSE|            2223          20.048                               0.257E+004
 RTBSE|            2224          20.144                               0.257E+004
 RTBSE|            2225          20.080                               0.257E+004
 RTBSE|            2226          20.054                               0.257E+004
 RTBSE|            2227          20.133                               0.257E+004
 RTBSE|            2228          20.135                               0.257E+004
 RTBSE|            2229          20.062                               0.257E+004
 RTBSE|            2230          20.125                               0.257E+004
 RTBSE|            2231          20.173                               0.257E+004
 RTBSE|            2232          20.114                               0.257E+004
 RTBSE|            2233          20.351                               0.257E+004
 RTBSE|            2234          20.198                               0.257E+004
 RTBSE|            2235          20.011                               0.257E+004
 RTBSE|            2236          20.027                               0.257E+004
 RTBSE|            2237          20.106                               0.257E+004
 RTBSE|            2238          20.039                               0.257E+004
 RTBSE|            2239          20.158                               0.257E+004
 RTBSE|            2240          20.113                               0.257E+004
 RTBSE|            2241          20.092                               0.257E+004
 RTBSE|            2242          20.211                               0.257E+004
 RTBSE|            2243          20.112                               0.257E+004
 RTBSE|            2244          20.015                               0.257E+004
 RTBSE|            2245          20.195                               0.257E+004
 RTBSE|            2246          20.127                               0.257E+004
 RTBSE|            2247          20.116                               0.257E+004
 RTBSE|            2248          20.081                               0.257E+004
 RTBSE|            2249          20.138                               0.257E+004
 RTBSE|            2250          19.979                               0.257E+004
 RTBSE|            2251          20.077                               0.257E+004
 RTBSE|            2252          20.088                               0.257E+004
 RTBSE|            2253          20.057                               0.257E+004
 RTBSE|            2254          20.058                               0.257E+004
 RTBSE|            2255          20.154                               0.257E+004
 RTBSE|            2256          20.066                               0.257E+004
 RTBSE|            2257          20.257                               0.257E+004
 RTBSE|            2258          20.241                               0.257E+004
 RTBSE|            2259          20.028                               0.257E+004
 RTBSE|            2260          20.132                               0.257E+004
 RTBSE|            2261          20.163                               0.257E+004
 RTBSE|            2262          20.066                               0.257E+004
 RTBSE|            2263          20.064                               0.257E+004
 RTBSE|            2264          20.254                               0.257E+004
 RTBSE|            2265          20.133                               0.257E+004
 RTBSE|            2266          20.087                               0.257E+004
 RTBSE|            2267          20.089                               0.257E+004
 RTBSE|            2268          20.082                               0.257E+004
 RTBSE|            2269          20.045                               0.257E+004
 RTBSE|            2270          20.049                               0.257E+004
 RTBSE|            2271          20.176                               0.257E+004
 RTBSE|            2272          20.150                               0.257E+004
 RTBSE|            2273          20.140                               0.257E+004
 RTBSE|            2274          19.998                               0.257E+004
 RTBSE|            2275          20.318                               0.257E+004
 RTBSE|            2276          20.073                               0.257E+004
 RTBSE|            2277          20.125                               0.257E+004
 RTBSE|            2278          20.132                               0.257E+004
 RTBSE|            2279          19.954                               0.257E+004
 RTBSE|            2280          20.095                               0.257E+004
 RTBSE|            2281          20.134                               0.257E+004
 RTBSE|            2282          20.013                               0.257E+004
 RTBSE|            2283          20.237                               0.257E+004
 RTBSE|            2284          20.132                               0.257E+004
 RTBSE|            2285          20.070                               0.257E+004
 RTBSE|            2286          20.179                               0.257E+004
 RTBSE|            2287          20.168                               0.257E+004
 RTBSE|            2288          20.092                               0.257E+004
 RTBSE|            2289          20.108                               0.257E+004
 RTBSE|            2290          20.078                               0.257E+004
 RTBSE|            2291          20.112                               0.257E+004
 RTBSE|            2292          20.097                               0.257E+004
 RTBSE|            2293          20.077                               0.257E+004
 RTBSE|            2294          20.153                               0.257E+004
 RTBSE|            2295          20.133                               0.257E+004
 RTBSE|            2296          20.142                               0.257E+004
 RTBSE|            2297          20.368                               0.257E+004
 RTBSE|            2298          20.087                               0.257E+004
 RTBSE|            2299          19.999                               0.257E+004
 RTBSE|            2300          20.083                               0.257E+004
 RTBSE|            2301          20.094                               0.257E+004
 RTBSE|            2302          20.068                               0.257E+004
 RTBSE|            2303          20.076                               0.257E+004
 RTBSE|            2304          20.148                               0.257E+004
 RTBSE|            2305          20.220                               0.257E+004
 RTBSE|            2306          20.135                               0.257E+004
 RTBSE|            2307          20.075                               0.257E+004
 RTBSE|            2308          20.134                               0.257E+004
 RTBSE|            2309          20.091                               0.257E+004
 RTBSE|            2310          20.089                               0.257E+004
 RTBSE|            2311          20.076                               0.257E+004
 RTBSE|            2312          19.977                               0.257E+004
 RTBSE|            2313          20.186                               0.257E+004
 RTBSE|            2314          20.079                               0.257E+004
 RTBSE|            2315          20.083                               0.257E+004
 RTBSE|            2316          20.157                               0.257E+004
 RTBSE|            2317          20.096                               0.257E+004
 RTBSE|            2318          20.052                               0.257E+004
 RTBSE|            2319          20.056                               0.257E+004
 RTBSE|            2320          20.172                               0.257E+004
 RTBSE|            2321          20.083                               0.257E+004
 RTBSE|            2322          20.104                               0.257E+004
 RTBSE|            2323          20.094                               0.257E+004
 RTBSE|            2324          20.067                               0.257E+004
 RTBSE|            2325          21.755                               0.257E+004
 RTBSE|            2326          20.060                               0.257E+004
 RTBSE|            2327          19.971                               0.257E+004
 RTBSE|            2328          20.027                               0.257E+004
 RTBSE|            2329          20.076                               0.257E+004
 RTBSE|            2330          20.075                               0.257E+004
 RTBSE|            2331          20.141                               0.257E+004
 RTBSE|            2332          20.148                               0.257E+004
 RTBSE|            2333          20.041                               0.257E+004
 RTBSE|            2334          20.075                               0.257E+004
 RTBSE|            2335          20.178                               0.257E+004
 RTBSE|            2336          20.030                               0.257E+004
 RTBSE|            2337          20.067                               0.257E+004
 RTBSE|            2338          20.074                               0.257E+004
 RTBSE|            2339          20.053                               0.257E+004
 RTBSE|            2340          20.036                               0.257E+004
 RTBSE|            2341          20.128                               0.257E+004
 RTBSE|            2342          20.058                               0.257E+004
 RTBSE|            2343          20.139                               0.257E+004
 RTBSE|            2344          20.188                               0.257E+004
 RTBSE|            2345          20.079                               0.257E+004
 RTBSE|            2346          20.067                               0.257E+004
 RTBSE|            2347          20.140                               0.257E+004
 RTBSE|            2348          20.006                               0.257E+004
 RTBSE|            2349          20.035                               0.257E+004
 RTBSE|            2350          21.731                               0.257E+004
 RTBSE|            2351          20.160                               0.257E+004
 RTBSE|            2352          20.022                               0.257E+004
 RTBSE|            2353          20.050                               0.257E+004
 RTBSE|            2354          20.090                               0.257E+004
 RTBSE|            2355          20.177                               0.257E+004
 RTBSE|            2356          20.100                               0.257E+004
 RTBSE|            2357          20.058                               0.257E+004
 RTBSE|            2358          20.152                               0.257E+004
 RTBSE|            2359          20.087                               0.257E+004
 RTBSE|            2360          20.180                               0.257E+004
 RTBSE|            2361          20.059                               0.257E+004
 RTBSE|            2362          20.021                               0.257E+004
 RTBSE|            2363          20.104                               0.257E+004
 RTBSE|            2364          20.119                               0.257E+004
 RTBSE|            2365          19.953                               0.257E+004
 RTBSE|            2366          20.128                               0.257E+004
 RTBSE|            2367          21.444                               0.257E+004
 RTBSE|            2368          20.043                               0.257E+004
 RTBSE|            2369          20.002                               0.257E+004
 RTBSE|            2370          20.030                               0.257E+004
 RTBSE|            2371          20.002                               0.257E+004
 RTBSE|            2372          20.073                               0.257E+004
 RTBSE|            2373          20.079                               0.257E+004
 RTBSE|            2374          20.074                               0.257E+004
 RTBSE|            2375          20.128                               0.257E+004
 RTBSE|            2376          20.067                               0.257E+004
 RTBSE|            2377          20.009                               0.257E+004
 RTBSE|            2378          20.086                               0.257E+004
 RTBSE|            2379          20.133                               0.257E+004
 RTBSE|            2380          20.009                               0.257E+004
 RTBSE|            2381          20.105                               0.257E+004
 RTBSE|            2382          20.097                               0.257E+004
 RTBSE|            2383          20.018                               0.257E+004
 RTBSE|            2384          20.149                               0.257E+004
 RTBSE|            2385          20.074                               0.257E+004
 RTBSE|            2386          20.053                               0.257E+004
 RTBSE|            2387          20.133                               0.257E+004
 RTBSE|            2388          20.111                               0.257E+004
 RTBSE|            2389          20.194                               0.257E+004
 RTBSE|            2390          20.070                               0.257E+004
 RTBSE|            2391          20.068                               0.257E+004
 RTBSE|            2392          20.110                               0.257E+004
 RTBSE|            2393          20.054                               0.257E+004
 RTBSE|            2394          20.060                               0.257E+004
 RTBSE|            2395          20.037                               0.257E+004
 RTBSE|            2396          20.120                               0.257E+004
 RTBSE|            2397          20.062                               0.257E+004
 RTBSE|            2398          20.102                               0.257E+004
 RTBSE|            2399          20.204                               0.257E+004
 RTBSE|            2400          20.351                               0.257E+004
 RTBSE|            2401          20.111                               0.257E+004
 RTBSE|            2402          20.041                               0.257E+004
 RTBSE|            2403          20.119                               0.257E+004
 RTBSE|            2404          20.060                               0.257E+004
 RTBSE|            2405          20.092                               0.257E+004
 RTBSE|            2406          20.180                               0.257E+004
 RTBSE|            2407          20.022                               0.257E+004
 RTBSE|            2408          20.039                               0.257E+004
 RTBSE|            2409          20.181                               0.257E+004
 RTBSE|            2410          20.075                               0.257E+004
 RTBSE|            2411          20.240                               0.257E+004
 RTBSE|            2412          21.548                               0.257E+004
 RTBSE|            2413          20.110                               0.257E+004
 RTBSE|            2414          20.105                               0.257E+004
 RTBSE|            2415          20.111                               0.257E+004
 RTBSE|            2416          20.127                               0.257E+004
 RTBSE|            2417          20.149                               0.257E+004
 RTBSE|            2418          20.229                               0.257E+004
 RTBSE|            2419          21.811                               0.257E+004
 RTBSE|            2420          20.107                               0.257E+004
 RTBSE|            2421          20.099                               0.257E+004
 RTBSE|            2422          20.043                               0.257E+004
 RTBSE|            2423          20.023                               0.257E+004
 RTBSE|            2424          20.128                               0.257E+004
 RTBSE|            2425          20.005                               0.257E+004
 RTBSE|            2426          20.096                               0.257E+004
 RTBSE|            2427          20.184                               0.257E+004
 RTBSE|            2428          20.123                               0.257E+004
 RTBSE|            2429          20.048                               0.257E+004
 RTBSE|            2430          20.179                               0.257E+004
 RTBSE|            2431          20.166                               0.257E+004
 RTBSE|            2432          20.049                               0.257E+004
 RTBSE|            2433          20.086                               0.257E+004
 RTBSE|            2434          20.015                               0.257E+004
 RTBSE|            2435          20.030                               0.257E+004
 RTBSE|            2436          20.080                               0.257E+004
 RTBSE|            2437          20.098                               0.257E+004
 RTBSE|            2438          19.962                               0.257E+004
 RTBSE|            2439          20.091                               0.257E+004
 RTBSE|            2440          20.005                               0.257E+004
 RTBSE|            2441          19.946                               0.257E+004
 RTBSE|            2442          20.043                               0.257E+004
 RTBSE|            2443          20.125                               0.257E+004
 RTBSE|            2444          19.992                               0.257E+004
 RTBSE|            2445          20.173                               0.257E+004
 RTBSE|            2446          20.124                               0.257E+004
 RTBSE|            2447          20.073                               0.257E+004
 RTBSE|            2448          20.123                               0.257E+004
 RTBSE|            2449          20.068                               0.257E+004
 RTBSE|            2450          19.990                               0.257E+004
 RTBSE|            2451          20.209                               0.257E+004
 RTBSE|            2452          20.056                               0.257E+004
 RTBSE|            2453          20.010                               0.257E+004
 RTBSE|            2454          20.135                               0.257E+004
 RTBSE|            2455          20.200                               0.257E+004
 RTBSE|            2456          20.126                               0.257E+004
 RTBSE|            2457          20.140                               0.257E+004
 RTBSE|            2458          20.037                               0.257E+004
 RTBSE|            2459          20.098                               0.257E+004
 RTBSE|            2460          20.089                               0.257E+004
 RTBSE|            2461          20.146                               0.257E+004
 RTBSE|            2462          20.128                               0.257E+004
 RTBSE|            2463          20.044                               0.257E+004
 RTBSE|            2464          20.050                               0.257E+004
 RTBSE|            2465          20.087                               0.257E+004
 RTBSE|            2466          20.182                               0.257E+004
 RTBSE|            2467          20.126                               0.257E+004
 RTBSE|            2468          20.211                               0.257E+004
 RTBSE|            2469          19.984                               0.257E+004
 RTBSE|            2470          20.067                               0.257E+004
 RTBSE|            2471          20.050                               0.257E+004
 RTBSE|            2472          20.160                               0.257E+004
 RTBSE|            2473          20.232                               0.257E+004
 RTBSE|            2474          20.130                               0.257E+004
 RTBSE|            2475          20.120                               0.257E+004
 RTBSE|            2476          20.050                               0.257E+004
 RTBSE|            2477          20.261                               0.257E+004
 RTBSE|            2478          20.054                               0.257E+004
 RTBSE|            2479          20.146                               0.257E+004
 RTBSE|            2480          20.171                               0.257E+004
 RTBSE|            2481          20.066                               0.257E+004
 RTBSE|            2482          20.148                               0.257E+004
 RTBSE|            2483          19.988                               0.257E+004
 RTBSE|            2484          20.097                               0.257E+004
 RTBSE|            2485          19.993                               0.257E+004
 RTBSE|            2486          20.077                               0.257E+004
 RTBSE|            2487          20.014                               0.257E+004
 RTBSE|            2488          20.084                               0.257E+004
 RTBSE|            2489          20.196                               0.257E+004
 RTBSE|            2490          20.073                               0.257E+004
 RTBSE|            2491          20.133                               0.257E+004
 RTBSE|            2492          20.140                               0.257E+004
 RTBSE|            2493          19.988                               0.257E+004
 RTBSE|            2494          20.109                               0.257E+004
 RTBSE|            2495          20.148                               0.257E+004
 RTBSE|            2496          20.045                               0.257E+004
 RTBSE|            2497          20.077                               0.257E+004
 RTBSE|            2498          20.119                               0.257E+004
 RTBSE|            2499          20.051                               0.257E+004
 RTBSE|            2500          20.123                               0.257E+004
 RTBSE|            2501          20.233                               0.257E+004
 RTBSE|            2502          19.988                               0.257E+004
 RTBSE|            2503          20.033                               0.257E+004
 RTBSE|            2504          20.062                               0.257E+004
 RTBSE|            2505          19.982                               0.257E+004
 RTBSE|            2506          20.116                               0.257E+004
 RTBSE|            2507          20.168                               0.257E+004
 RTBSE|            2508          19.962                               0.257E+004
 RTBSE|            2509          20.129                               0.257E+004
 RTBSE|            2510          20.185                               0.257E+004
 RTBSE|            2511          20.018                               0.257E+004
 RTBSE|            2512          20.118                               0.257E+004
 RTBSE|            2513          20.111                               0.257E+004
 RTBSE|            2514          19.990                               0.257E+004
 RTBSE|            2515          20.042                               0.257E+004
 RTBSE|            2516          20.116                               0.257E+004
 RTBSE|            2517          20.102                               0.257E+004
 RTBSE|            2518          20.185                               0.257E+004
 RTBSE|            2519          20.078                               0.257E+004
 RTBSE|            2520          20.012                               0.257E+004
 RTBSE|            2521          20.118                               0.257E+004
 RTBSE|            2522          20.117                               0.257E+004
 RTBSE|            2523          20.069                               0.257E+004
 RTBSE|            2524          20.135                               0.257E+004
 RTBSE|            2525          20.173                               0.257E+004
 RTBSE|            2526          20.060                               0.257E+004
 RTBSE|            2527          20.021                               0.257E+004
 RTBSE|            2528          20.196                               0.257E+004
 RTBSE|            2529          20.100                               0.257E+004
 RTBSE|            2530          20.091                               0.257E+004
 RTBSE|            2531          20.134                               0.257E+004
 RTBSE|            2532          20.101                               0.257E+004
 RTBSE|            2533          20.014                               0.257E+004
 RTBSE|            2534          20.252                               0.257E+004
 RTBSE|            2535          20.083                               0.257E+004
 RTBSE|            2536          20.095                               0.257E+004
 RTBSE|            2537          20.128                               0.257E+004
 RTBSE|            2538          20.077                               0.257E+004
 RTBSE|            2539          20.339                               0.257E+004
 RTBSE|            2540          20.181                               0.257E+004
 RTBSE|            2541          20.061                               0.257E+004
 RTBSE|            2542          20.008                               0.257E+004
 RTBSE|            2543          20.131                               0.257E+004
 RTBSE|            2544          20.176                               0.257E+004
 RTBSE|            2545          20.146                               0.257E+004
 RTBSE|            2546          20.201                               0.257E+004
 RTBSE|            2547          20.103                               0.257E+004
 RTBSE|            2548          20.017                               0.257E+004
 RTBSE|            2549          20.131                               0.257E+004
 RTBSE|            2550          20.151                               0.257E+004
 RTBSE|            2551          20.114                               0.257E+004
 RTBSE|            2552          20.074                               0.257E+004
 RTBSE|            2553          20.117                               0.257E+004
 RTBSE|            2554          19.991                               0.257E+004
 RTBSE|            2555          20.225                               0.257E+004
 RTBSE|            2556          20.043                               0.257E+004
 RTBSE|            2557          19.982                               0.257E+004
 RTBSE|            2558          20.156                               0.257E+004
 RTBSE|            2559          20.019                               0.257E+004
 RTBSE|            2560          20.082                               0.257E+004
 RTBSE|            2561          20.131                               0.257E+004
 RTBSE|            2562          20.112                               0.257E+004
 RTBSE|            2563          20.025                               0.257E+004
 RTBSE|            2564          20.039                               0.257E+004
 RTBSE|            2565          20.082                               0.257E+004
 RTBSE|            2566          20.033                               0.257E+004
 RTBSE|            2567          20.127                               0.257E+004
 RTBSE|            2568          20.063                               0.257E+004
 RTBSE|            2569          21.638                               0.257E+004
 RTBSE|            2570          20.141                               0.257E+004
 RTBSE|            2571          20.206                               0.257E+004
 RTBSE|            2572          20.035                               0.257E+004
 RTBSE|            2573          20.152                               0.257E+004
 RTBSE|            2574          20.125                               0.257E+004
 RTBSE|            2575          20.052                               0.257E+004
 RTBSE|            2576          20.091                               0.257E+004
 RTBSE|            2577          20.094                               0.257E+004
 RTBSE|            2578          20.161                               0.257E+004
 RTBSE|            2579          20.078                               0.257E+004
 RTBSE|            2580          20.179                               0.257E+004
 RTBSE|            2581          20.024                               0.257E+004
 RTBSE|            2582          20.046                               0.257E+004
 RTBSE|            2583          20.105                               0.257E+004
 RTBSE|            2584          20.092                               0.257E+004
 RTBSE|            2585          20.147                               0.257E+004
 RTBSE|            2586          20.177                               0.257E+004
 RTBSE|            2587          20.085                               0.257E+004
 RTBSE|            2588          20.119                               0.257E+004
 RTBSE|            2589          20.083                               0.257E+004
 RTBSE|            2590          20.091                               0.257E+004
 RTBSE|            2591          20.064                               0.257E+004
 RTBSE|            2592          20.137                               0.257E+004
 RTBSE|            2593          20.101                               0.257E+004
 RTBSE|            2594          20.103                               0.257E+004
 RTBSE|            2595          20.050                               0.257E+004
 RTBSE|            2596          20.249                               0.257E+004
 RTBSE|            2597          19.976                               0.257E+004
 RTBSE|            2598          20.103                               0.257E+004
 RTBSE|            2599          20.137                               0.257E+004
 RTBSE|            2600          20.000                               0.257E+004
 RTBSE|            2601          20.052                               0.257E+004
 RTBSE|            2602          20.070                               0.257E+004
 RTBSE|            2603          20.120                               0.257E+004
 RTBSE|            2604          20.130                               0.257E+004
 RTBSE|            2605          20.139                               0.257E+004
 RTBSE|            2606          20.086                               0.257E+004
 RTBSE|            2607          20.136                               0.257E+004
 RTBSE|            2608          20.198                               0.257E+004
 RTBSE|            2609          20.116                               0.257E+004
 RTBSE|            2610          20.154                               0.257E+004
 RTBSE|            2611          20.238                               0.257E+004
 RTBSE|            2612          20.031                               0.257E+004
 RTBSE|            2613          20.105                               0.257E+004
 RTBSE|            2614          21.809                               0.257E+004
 RTBSE|            2615          20.031                               0.257E+004
 RTBSE|            2616          20.067                               0.257E+004
 RTBSE|            2617          20.119                               0.257E+004
 RTBSE|            2618          20.049                               0.257E+004
 RTBSE|            2619          20.158                               0.257E+004
 RTBSE|            2620          20.156                               0.257E+004
 RTBSE|            2621          20.022                               0.257E+004
 RTBSE|            2622          20.039                               0.257E+004
 RTBSE|            2623          20.130                               0.257E+004
 RTBSE|            2624          20.016                               0.257E+004
 RTBSE|            2625          20.151                               0.257E+004
 RTBSE|            2626          20.131                               0.257E+004
 RTBSE|            2627          20.037                               0.257E+004
 RTBSE|            2628          20.088                               0.257E+004
 RTBSE|            2629          20.150                               0.257E+004
 RTBSE|            2630          20.036                               0.257E+004
 RTBSE|            2631          20.077                               0.257E+004
 RTBSE|            2632          20.136                               0.257E+004
 RTBSE|            2633          19.979                               0.257E+004
 RTBSE|            2634          20.037                               0.257E+004
 RTBSE|            2635          20.093                               0.257E+004
 RTBSE|            2636          20.104                               0.257E+004
 RTBSE|            2637          20.082                               0.257E+004
 RTBSE|            2638          20.130                               0.257E+004
 RTBSE|            2639          20.068                               0.257E+004
 RTBSE|            2640          20.114                               0.257E+004
 RTBSE|            2641          20.155                               0.257E+004
 RTBSE|            2642          20.032                               0.257E+004
 RTBSE|            2643          19.944                               0.257E+004
 RTBSE|            2644          20.155                               0.257E+004
 RTBSE|            2645          20.032                               0.257E+004
 RTBSE|            2646          19.955                               0.257E+004
 RTBSE|            2647          20.122                               0.257E+004
 RTBSE|            2648          20.123                               0.257E+004
 RTBSE|            2649          20.097                               0.257E+004
 RTBSE|            2650          20.140                               0.257E+004
 RTBSE|            2651          20.194                               0.257E+004
 RTBSE|            2652          19.994                               0.257E+004
 RTBSE|            2653          20.148                               0.257E+004
 RTBSE|            2654          19.997                               0.257E+004
 RTBSE|            2655          20.004                               0.257E+004
 RTBSE|            2656          20.159                               0.257E+004
 RTBSE|            2657          20.052                               0.257E+004
 RTBSE|            2658          20.117                               0.257E+004
 RTBSE|            2659          20.171                               0.257E+004
 RTBSE|            2660          20.098                               0.257E+004
 RTBSE|            2661          20.006                               0.257E+004
 RTBSE|            2662          20.114                               0.257E+004
 RTBSE|            2663          20.043                               0.257E+004
 RTBSE|            2664          20.063                               0.257E+004
 RTBSE|            2665          20.102                               0.257E+004
 RTBSE|            2666          20.091                               0.257E+004
 RTBSE|            2667          20.175                               0.257E+004
 RTBSE|            2668          20.097                               0.257E+004
 RTBSE|            2669          20.075                               0.257E+004
 RTBSE|            2670          19.985                               0.257E+004
 RTBSE|            2671          20.042                               0.257E+004
 RTBSE|            2672          20.099                               0.257E+004
 RTBSE|            2673          20.177                               0.257E+004
 RTBSE|            2674          20.126                               0.257E+004
 RTBSE|            2675          20.105                               0.257E+004
 RTBSE|            2676          20.079                               0.257E+004
 RTBSE|            2677          20.037                               0.257E+004
 RTBSE|            2678          20.104                               0.257E+004
 RTBSE|            2679          20.054                               0.257E+004
 RTBSE|            2680          19.974                               0.257E+004
 RTBSE|            2681          20.061                               0.257E+004
 RTBSE|            2682          20.079                               0.257E+004
 RTBSE|            2683          19.981                               0.257E+004
 RTBSE|            2684          20.016                               0.257E+004
 RTBSE|            2685          20.021                               0.257E+004
 RTBSE|            2686          20.040                               0.257E+004
 RTBSE|            2687          20.128                               0.257E+004
 RTBSE|            2688          20.092                               0.257E+004
 RTBSE|            2689          20.118                               0.257E+004
 RTBSE|            2690          20.242                               0.257E+004
 RTBSE|            2691          20.082                               0.257E+004
 RTBSE|            2692          19.998                               0.257E+004
 RTBSE|            2693          20.175                               0.257E+004
 RTBSE|            2694          20.030                               0.257E+004
 RTBSE|            2695          20.000                               0.257E+004
 RTBSE|            2696          20.079                               0.257E+004
 RTBSE|            2697          20.029                               0.257E+004
 RTBSE|            2698          20.040                               0.257E+004
 RTBSE|            2699          20.111                               0.257E+004
 RTBSE|            2700          20.103                               0.257E+004
 RTBSE|            2701          20.214                               0.257E+004
 RTBSE|            2702          20.170                               0.257E+004
 RTBSE|            2703          20.086                               0.257E+004
 RTBSE|            2704          20.041                               0.257E+004
 RTBSE|            2705          20.316                               0.257E+004
 RTBSE|            2706          20.180                               0.257E+004
 RTBSE|            2707          20.120                               0.257E+004
 RTBSE|            2708          20.163                               0.257E+004
 RTBSE|            2709          20.077                               0.257E+004
 RTBSE|            2710          20.106                               0.257E+004
 RTBSE|            2711          20.009                               0.257E+004
 RTBSE|            2712          20.046                               0.257E+004
 RTBSE|            2713          20.052                               0.257E+004
 RTBSE|            2714          20.061                               0.257E+004
 RTBSE|            2715          20.134                               0.257E+004
 RTBSE|            2716          20.084                               0.257E+004
 RTBSE|            2717          20.098                               0.257E+004
 RTBSE|            2718          20.167                               0.257E+004
 RTBSE|            2719          20.014                               0.257E+004
 RTBSE|            2720          20.098                               0.257E+004
 RTBSE|            2721          20.160                               0.257E+004
 RTBSE|            2722          20.072                               0.257E+004
 RTBSE|            2723          20.083                               0.257E+004
 RTBSE|            2724          20.132                               0.257E+004
 RTBSE|            2725          20.082                               0.257E+004
 RTBSE|            2726          20.158                               0.257E+004
 RTBSE|            2727          20.251                               0.257E+004
 RTBSE|            2728          20.041                               0.257E+004
 RTBSE|            2729          20.115                               0.257E+004
 RTBSE|            2730          20.187                               0.257E+004
 RTBSE|            2731          20.065                               0.257E+004
 RTBSE|            2732          20.108                               0.257E+004
 RTBSE|            2733          20.203                               0.257E+004
 RTBSE|            2734          20.126                               0.257E+004
 RTBSE|            2735          20.167                               0.257E+004
 RTBSE|            2736          20.147                               0.257E+004
 RTBSE|            2737          20.014                               0.257E+004
 RTBSE|            2738          20.035                               0.257E+004
 RTBSE|            2739          19.989                               0.257E+004
 RTBSE|            2740          20.041                               0.257E+004
 RTBSE|            2741          20.136                               0.257E+004
 RTBSE|            2742          20.213                               0.257E+004
 RTBSE|            2743          20.050                               0.257E+004
 RTBSE|            2744          20.045                               0.257E+004
 RTBSE|            2745          20.113                               0.257E+004
 RTBSE|            2746          20.025                               0.257E+004
 RTBSE|            2747          20.020                               0.257E+004
 RTBSE|            2748          20.111                               0.257E+004
 RTBSE|            2749          19.992                               0.257E+004
 RTBSE|            2750          20.047                               0.257E+004
 RTBSE|            2751          20.049                               0.257E+004
 RTBSE|            2752          20.060                               0.257E+004
 RTBSE|            2753          20.076                               0.257E+004
 RTBSE|            2754          20.180                               0.257E+004
 RTBSE|            2755          20.172                               0.257E+004
 RTBSE|            2756          20.057                               0.257E+004
 RTBSE|            2757          20.146                               0.257E+004
 RTBSE|            2758          20.078                               0.257E+004
 RTBSE|            2759          19.991                               0.257E+004
 RTBSE|            2760          20.151                               0.257E+004
 RTBSE|            2761          20.177                               0.257E+004
 RTBSE|            2762          20.061                               0.257E+004
 RTBSE|            2763          20.181                               0.257E+004
 RTBSE|            2764          20.140                               0.257E+004
 RTBSE|            2765          19.984                               0.257E+004
 RTBSE|            2766          20.230                               0.257E+004
 RTBSE|            2767          20.115                               0.257E+004
 RTBSE|            2768          19.998                               0.257E+004
 RTBSE|            2769          20.190                               0.257E+004
 RTBSE|            2770          20.097                               0.257E+004
 RTBSE|            2771          20.124                               0.257E+004
 RTBSE|            2772          20.162                               0.257E+004
 RTBSE|            2773          20.072                               0.257E+004
 RTBSE|            2774          20.107                               0.257E+004
 RTBSE|            2775          20.329                               0.257E+004
 RTBSE|            2776          20.071                               0.257E+004
 RTBSE|            2777          20.135                               0.257E+004
 RTBSE|            2778          20.072                               0.257E+004
 RTBSE|            2779          20.133                               0.257E+004
 RTBSE|            2780          20.146                               0.257E+004
 RTBSE|            2781          20.177                               0.257E+004
 RTBSE|            2782          20.096                               0.257E+004
 RTBSE|            2783          20.041                               0.257E+004
 RTBSE|            2784          20.095                               0.257E+004
 RTBSE|            2785          20.180                               0.257E+004
 RTBSE|            2786          20.053                               0.257E+004
 RTBSE|            2787          20.130                               0.257E+004
 RTBSE|            2788          20.177                               0.257E+004
 RTBSE|            2789          20.086                               0.257E+004
 RTBSE|            2790          20.048                               0.257E+004
 RTBSE|            2791          20.158                               0.257E+004
 RTBSE|            2792          20.118                               0.257E+004
 RTBSE|            2793          20.127                               0.257E+004
 RTBSE|            2794          20.180                               0.257E+004
 RTBSE|            2795          20.079                               0.257E+004
 RTBSE|            2796          20.164                               0.257E+004
 RTBSE|            2797          20.157                               0.257E+004
 RTBSE|            2798          20.028                               0.257E+004
 RTBSE|            2799          20.080                               0.257E+004
 RTBSE|            2800          20.146                               0.257E+004
 RTBSE|            2801          20.024                               0.257E+004
 RTBSE|            2802          20.149                               0.257E+004
 RTBSE|            2803          20.122                               0.257E+004
 RTBSE|            2804          20.026                               0.257E+004
 RTBSE|            2805          20.114                               0.257E+004
 RTBSE|            2806          20.154                               0.257E+004
 RTBSE|            2807          20.037                               0.257E+004
 RTBSE|            2808          20.067                               0.257E+004
 RTBSE|            2809          20.114                               0.257E+004
 RTBSE|            2810          20.164                               0.257E+004
 RTBSE|            2811          19.997                               0.257E+004
 RTBSE|            2812          20.137                               0.257E+004
 RTBSE|            2813          20.062                               0.257E+004
 RTBSE|            2814          20.087                               0.257E+004
 RTBSE|            2815          20.216                               0.257E+004
 RTBSE|            2816          20.010                               0.257E+004
 RTBSE|            2817          20.036                               0.257E+004
 RTBSE|            2818          20.088                               0.257E+004
 RTBSE|            2819          20.036                               0.257E+004
 RTBSE|            2820          19.986                               0.257E+004
 RTBSE|            2821          20.130                               0.257E+004
 RTBSE|            2822          20.017                               0.257E+004
 RTBSE|            2823          19.975                               0.257E+004
 RTBSE|            2824          20.112                               0.257E+004
 RTBSE|            2825          20.073                               0.257E+004
 RTBSE|            2826          20.072                               0.257E+004
 RTBSE|            2827          20.060                               0.257E+004
 RTBSE|            2828          20.152                               0.257E+004
 RTBSE|            2829          20.010                               0.257E+004
 RTBSE|            2830          20.067                               0.257E+004
 RTBSE|            2831          19.998                               0.257E+004
 RTBSE|            2832          20.016                               0.257E+004
 RTBSE|            2833          20.113                               0.257E+004
 RTBSE|            2834          20.065                               0.257E+004
 RTBSE|            2835          20.032                               0.257E+004
 RTBSE|            2836          20.078                               0.257E+004
 RTBSE|            2837          20.090                               0.257E+004
 RTBSE|            2838          20.044                               0.257E+004
 RTBSE|            2839          20.089                               0.257E+004
 RTBSE|            2840          20.115                               0.257E+004
 RTBSE|            2841          20.129                               0.257E+004
 RTBSE|            2842          20.050                               0.257E+004
 RTBSE|            2843          20.075                               0.257E+004
 RTBSE|            2844          20.079                               0.257E+004
 RTBSE|            2845          20.098                               0.257E+004
 RTBSE|            2846          20.118                               0.257E+004
 RTBSE|            2847          20.077                               0.257E+004
  GREENX FT_PADE| n_pade, n_fit, window [eV]   484     968     0.0000    19.9960
  GREENX FT_PADE| n_pade, n_fit, window [eV]   484     968     0.0000    19.9960
  GREENX FT_PADE| n_pade, n_fit, window [eV]   484     968     0.0000    19.9960
 STATIC_POL|         spin  element Re [a.u.]              Im [a.u.]
 STATIC_POL|            1    1,  2     -1.0331934126E+000      5.2500736896E-016
 STATIC_POL|            1    2,  2      6.8542742084E+004     -1.4010001492E-012
 STATIC_POL|            1    3,  2      5.8594794264E-001      1.3915792953E-016

 -------------------------------------------------------------------------------
 -                                                                             -
 -                                DBCSR STATISTICS                             -
 -                                                                             -
 -------------------------------------------------------------------------------
 COUNTER                                    TOTAL       BLAS       SMM       ACC
 flops     6 x     6 x   232            219189888       0.0%    100.0%      0.0%     
 flops     6 x    32 x     6           1192375296       0.0%    100.0%      0.0%     
 flops    13 x     6 x   232           1556979840       0.0%    100.0%      0.0%     
 flops     6 x    13 x   232           1560019968       0.0%    100.0%      0.0%     
 flops     6 x     6 x   256           1693052928       0.0%    100.0%      0.0%     
 flops     5 x     5 x     3           6021147750       0.0%    100.0%      0.0%     
 flops     6 x    32 x    13           8741930496       0.0%    100.0%      0.0%     
 flops    13 x    32 x     6           8741930496       0.0%    100.0%      0.0%     
 flops    13 x    13 x   232          10989845568       0.0%    100.0%      0.0%     
 flops     3 x     5 x     3          11454304500       0.0%    100.0%      0.0%     
 flops    13 x     6 x   256          12026327040       0.0%    100.0%      0.0%     
 flops     6 x    13 x   256          12049809408       0.0%    100.0%      0.0%     
 flops     5 x     5 x    27          16567501050       0.0%    100.0%      0.0%     
 flops     3 x     5 x     5          19794733200       0.0%    100.0%      0.0%     
 flops     3 x     3 x     5          26913962790       0.0%    100.0%      0.0%     
 flops    27 x     5 x     3          29143908540       0.0%    100.0%      0.0%     
 flops     3 x     5 x    27          39582912330       0.0%    100.0%      0.0%     
 flops    27 x     5 x     5          55652313600       0.0%    100.0%      0.0%     
 flops    13 x    32 x    13          61053031936       0.0%    100.0%      0.0%     
 flops    27 x     3 x     5          71501983740       0.0%    100.0%      0.0%     
 flops     3 x    27 x     5          74631668220       0.0%    100.0%      0.0%     
 flops    13 x    13 x   256          84887083008       0.0%    100.0%      0.0%     
 flops    27 x     5 x    27         101633206950       0.0%    100.0%      0.0%     
 flops     5 x    30 x     3         128307256200       0.0%    100.0%      0.0%     
 flops    30 x     5 x     3         130826274300       0.0%    100.0%      0.0%     
 flops     5 x     5 x    32         163669035200       0.0%    100.0%      0.0%     
 flops    27 x    27 x     5         198102972510       0.0%    100.0%      0.0%     
 flops     3 x    30 x     3         263226188160       0.0%    100.0%      0.0%     
 flops    32 x     5 x     3         276682772160       0.0%    100.0%      0.0%     
 flops     5 x    30 x    27         352269972000       0.0%    100.0%      0.0%     
 flops    30 x     5 x    27         360327876300       0.0%    100.0%      0.0%     
 flops     3 x     5 x    32         362732452800       0.0%    100.0%      0.0%     
 flops     3 x    30 x     5         426728408400       0.0%    100.0%      0.0%     
 flops     3 x     5 x    30         451852297200       0.0%    100.0%      0.0%     
 flops    32 x     5 x     5         472268977600       0.0%    100.0%      0.0%     
 flops     3 x     3 x    30         593350431840       0.0%    100.0%      0.0%     
 flops    32 x     3 x     5         616552318080       0.0%    100.0%      0.0%     
 flops    27 x    30 x     3         670169345220       0.0%    100.0%      0.0%     
 flops     3 x    32 x     5         675112674240       0.0%    100.0%      0.0%     
 flops     3 x    30 x    27         886713867180       0.0%    100.0%      0.0%     
 flops    27 x     5 x    32         930661228800       0.0%    100.0%      0.0%     
 flops    32 x     5 x    27         938894448960       0.0%    100.0%      0.0%     
 flops    27 x    30 x     5        1195060197600       0.0%    100.0%      0.0%     
 flops    27 x     5 x    30        1266238882800       0.0%    100.0%      0.0%     
 flops    27 x     3 x    30        1574403833160       0.0%    100.0%      0.0%     
 flops     3 x    27 x    30        1653307153020       0.0%    100.0%      0.0%     
 flops    32 x    27 x     5        1709049965760       0.0%    100.0%      0.0%     
 flops    27 x    32 x     5        1794793533120       0.0%    100.0%      0.0%     
 flops    27 x    30 x    27        2277025449300       0.0%    100.0%      0.0%     
 flops    30 x    30 x     3        2789491699800       0.0%    100.0%      0.0%     
 flops     5 x    30 x    32        3477472896000       0.0%    100.0%      0.0%     
 flops    30 x     5 x    32        3505153766400       0.0%    100.0%      0.0%     
 flops    27 x    27 x    30        4383027673560       0.0%    100.0%      0.0%     
 flops     6 x     6 x     3        4448136917088       0.0%    100.0%      0.0%     
 flops     3 x     6 x     3        6055456205736       0.0%    100.0%      0.0%     
 flops     3 x     3 x     6        6094665856188       0.0%    100.0%      0.0%     
 flops    32 x    30 x     3        6320623265280       0.0%    100.0%      0.0%     
 flops    30 x    30 x    27        7668296179200       0.0%    100.0%      0.0%     
 flops     3 x    30 x    32        8063421298560       0.0%    100.0%      0.0%     
 flops    32 x     5 x    32        8608167454720       0.0%    100.0%      0.0%     
 flops     3 x    30 x    30        9520787098800       0.0%    100.0%      0.0%     
 flops    32 x    30 x     5       10148299113600       0.0%    100.0%      0.0%     
 flops    32 x     5 x    30       10601772758400       0.0%    100.0%      0.0%     
 flops     3 x     6 x     6       10799894422224       0.0%    100.0%      0.0%     
 flops     6 x     6 x    27       11638583201160       0.0%    100.0%      0.0%     
 flops    32 x     3 x    30       13594798949760       0.0%    100.0%      0.0%     
 flops     3 x    32 x    30       14730434720640       0.0%    100.0%      0.0%     
 flops    32 x    32 x     5       15384296540160       0.0%    100.0%      0.0%     
 flops    27 x     6 x     3       15890111893224       0.0%    100.0%      0.0%     
 flops     3 x     6 x    27       15979261451940       0.0%    100.0%      0.0%     
 flops    27 x     3 x     6       15987951907596       0.0%    100.0%      0.0%     
 flops     3 x    27 x     6       16073805726324       0.0%    100.0%      0.0%     
 flops    27 x    30 x    32       20695647692160       0.0%    100.0%      0.0%     
 flops    32 x    30 x    27       20962922653440       0.0%    100.0%      0.0%     
 flops    27 x    30 x    30       26658802749600       0.0%    100.0%      0.0%     
 flops    27 x     6 x     6       28728478963152       0.0%    100.0%      0.0%     
 flops     6 x    13 x     3       34047722922876       0.0%    100.0%      0.0%     
 flops    32 x    27 x    30       37864266946560       0.0%    100.0%      0.0%     
 flops    27 x    32 x    30       39096721992960       0.0%    100.0%      0.0%     
 flops    27 x     6 x    27       41515096280688       0.0%    100.0%      0.0%     
 flops    27 x    27 x     6       41748803168508       0.0%    100.0%      0.0%     
 flops    13 x     6 x     3       44409548468844       0.0%    100.0%      0.0%     
 flops     3 x    13 x     3       60649936789338       0.0%    100.0%      0.0%     
 flops     3 x     3 x    13       61051814621928       0.0%    100.0%      0.0%     
 flops    30 x    30 x    32       74511745574400       0.0%    100.0%      0.0%     
 flops     3 x    13 x     6       79431642211896       0.0%    100.0%      0.0%     
 flops     6 x    13 x    27       89285933172384       0.0%    100.0%      0.0%     
 flops     3 x     6 x    13      107180282785212       0.0%    100.0%      0.0%     
 flops    13 x     6 x    27      112784211315360       0.0%    100.0%      0.0%     
 flops    32 x     6 x     3      129507474977280       0.0%    100.0%      0.0%     
 flops    32 x     3 x     6      130379480304768       0.0%    100.0%      0.0%     
 flops     6 x     6 x    32      134482444406784       0.0%    100.0%      0.0%     
 flops     3 x    13 x    27      155186057419614       0.0%    100.0%      0.0%     
 flops     3 x    27 x    13      156164426478450       0.0%    100.0%      0.0%     
 flops    27 x    13 x     3      158977690073046       0.0%    100.0%      0.0%     
 flops    27 x     3 x    13      159982601749074       0.0%    100.0%      0.0%     
 flops     3 x     6 x    32      178189528272768       0.0%    100.0%      0.0%     
 flops     3 x    32 x     6      179286979195008       0.0%    100.0%      0.0%     
 flops    32 x    30 x    32      190777950781440       0.0%    100.0%      0.0%     
 flops    27 x    13 x     6      211292991139932       0.0%    100.0%      0.0%     
 flops    32 x    30 x    30      223217113305600       0.0%    100.0%      0.0%     
 flops    27 x     6 x    13      275264391060360       0.0%    100.0%      0.0%     
 flops    32 x     6 x     6      316291790506752       0.0%    100.0%      0.0%     
 flops    32 x    32 x    30      335696061603840       0.0%    100.0%      0.0%     
 flops    32 x     6 x    27      339591455745408       0.0%    100.0%      0.0%     
 flops    13 x    13 x     3      340742327435640       0.0%    100.0%      0.0%     
 flops    32 x    27 x     6      341697299416704       0.0%    100.0%      0.0%     
 flops    27 x    13 x    27      402715986260796       0.0%    100.0%      0.0%     
 flops    27 x    27 x    13      405141720867702       0.0%    100.0%      0.0%     
 flops    27 x     6 x    32      464414360906880       0.0%    100.0%      0.0%     
 flops    27 x    32 x     6      467144668191744       0.0%    100.0%      0.0%     
 flops     3 x    13 x    13      788290202643762       0.0%    100.0%      0.0%     
 flops    13 x    13 x    27      867158080088508       0.0%    100.0%      0.0%     
 flops     6 x    13 x    32     1022295639570816       0.0%    100.0%      0.0%     
 flops    13 x     6 x    32     1184442837991296       0.0%    100.0%      0.0%     
 flops    32 x    13 x     3     1296989398753152       0.0%    100.0%      0.0%     
 flops    32 x     3 x    13     1305898506684096       0.0%    100.0%      0.0%     
 flops     3 x    13 x    32     1574768321278464       0.0%    100.0%      0.0%     
 flops     3 x    32 x    13     1584782318720640       0.0%    100.0%      0.0%     
 flops    27 x    13 x    13     2024515746721962       0.0%    100.0%      0.0%     
 flops    32 x    13 x     6     2326277503500288       0.0%    100.0%      0.0%     
 flops    32 x     6 x    13     2773258768650240       0.0%    100.0%      0.0%     
 flops    32 x    13 x    27     3298147759146240       0.0%    100.0%      0.0%     
 flops    32 x    27 x    13     3319888124517120       0.0%    100.0%      0.0%     
 flops    32 x     6 x    32     3797651589881856       0.0%    100.0%      0.0%     
 flops    32 x    32 x     6     3822024698277888       0.0%    100.0%      0.0%     
 flops    27 x    13 x    32     4102203294139392       0.0%    100.0%      0.0%     
 flops    27 x    32 x    13     4127164613582400       0.0%    100.0%      0.0%     
 flops    13 x    13 x    32     9027033292306432       0.0%    100.0%      0.0%     
 flops    32 x    13 x    13    20396691159997568       0.0%    100.0%      0.0%     
 flops    32 x    13 x    32    33563894834010112       0.0%    100.0%      0.0%     
 flops    32 x    32 x    13    33785213115703296       0.0%    100.0%      0.0%     
 flops inhomo. stacks                           0       0.0%      0.0%      0.0%
 flops total                       142.848148E+15       0.0%    100.0%      0.0%
 flops max/rank                      2.258091E+15       0.0%    100.0%      0.0%
 matmuls inhomo. stacks                         0       0.0%      0.0%      0.0%
 matmuls total                     14531821357822       0.0%    100.0%      0.0%
 number of processed stacks           24754847810       0.0%    100.0%      0.0%
 average stack size                                     0.0     587.0       0.0
 marketing flops                     7.097856E+18
 -------------------------------------------------------------------------------
 # multiplications                         114412
 max memory usage/rank              37.296329E+09
 # max total images/rank                        1
 # max 3D layers                                1
 # MPI messages exchanged               102513152
 MPI messages size (bytes):
  total size                         4.077550E+15
  min size                           0.000000E+00
  max size                         440.055648E+06
  average size                      39.775868E+06
 MPI breakdown and total messages size (bytes):
             size <=      128               32480                        0
       128 < size <=     8192                1120                  5580960
      8192 < size <=    32768                 448                  5229952
     32768 < size <=   131072                   0                        0
    131072 < size <=  4194304                5152              13304065152
   4194304 < size <= 16777216            61445202          372925640369520
  16777216 < size                        41028750         3720298427527248
 -------------------------------------------------------------------------------
 -                                                                             -
 -                      DBCSR MESSAGE PASSING PERFORMANCE                      -
 -                                                                             -
 -------------------------------------------------------------------------------
 ROUTINE             CALLS      AVE VOLUME [Bytes]
 MP_Bcast              133                     12.
 MP_Allreduce       457988                    285.
 MP_Alltoall        937609                2966407.
 MP_ISend          5597946               11670415.
 MP_IRecv          5599576               11670599.
 -------------------------------------------------------------------------------

 -------------------------------------------------------------------------------
 -                                                                             -
 -                                GRID STATISTICS                              -
 -                                                                             -
 -------------------------------------------------------------------------------
 LP    KERNEL             BACKEND                              COUNT     PERCENT
 3     collocate ortho    CPU                                  22581      19.83%
 3     integrate ortho    CPU                                  22581      19.83%
 4     collocate ortho    CPU                                  21480      18.86%
 4     integrate ortho    CPU                                  21480      18.86%
 2     collocate ortho    CPU                                  11130       9.77%
 2     integrate ortho    CPU                                  11130       9.77%
 0     collocate general  CPU                                   2320       2.04%
 0     integrate general  CPU                                   1160       1.02%
 -------------------------------------------------------------------------------

 -------------------------------------------------------------------------------
 -                                                                             -
 -                          OFFLOAD MEMPOOL STATISTICS                         -
 -                                                                             -
 -------------------------------------------------------------------------------
 Memory consumption                Number of allocations  Used [MiB]  Size [MiB]
 Host                                                  6         142    21863795
 -------------------------------------------------------------------------------

 MEMORY| Estimated peak process memory [MiB]                               12560

 -------------------------------------------------------------------------------
 ----                             MULTIGRID INFO                            ----
 -------------------------------------------------------------------------------
 count for grid        1:         493084          cutoff [a.u.]          300.00
 count for grid        2:         497249          cutoff [a.u.]          100.00
 count for grid        3:         657628          cutoff [a.u.]           33.33
 count for grid        4:         450951          cutoff [a.u.]           11.11
 total gridlevel count  :        2098912

 -------------------------------------------------------------------------------
 -                                                                             -
 -                         MESSAGE PASSING PERFORMANCE                         -
 -                                                                             -
 -------------------------------------------------------------------------------

 ROUTINE             CALLS      AVE VOLUME [Bytes]
 MP_Group               25
 MP_Bcast             2239                 121637.
 MP_Allreduce       115245                 305529.
 MP_Sync                11
 MP_Alltoall            73               93487910.
 MP_SendRecv           378                 789504.
 MP_ISendRecv          378                 789504.
 MP_Wait              1418
 MP_comm_split          12
 MP_ISend             1018                 961627.
 MP_IRecv             1018                 964445.
 -------------------------------------------------------------------------------


 -------------------------------------------------------------------------------
 -                                                                             -
 -                           R E F E R E N C E S                               -
 -                                                                             -
 -------------------------------------------------------------------------------
 
 CP2K version 2026.2 (Development Version), the CP2K developers group (2026).
 CP2K is freely available from https://www.cp2k.org/ .
 
 M. Iannuzzi, J. Wilhelm, F. Stein, A. Bussy, H. Elgabarty, D. Golze, A. Hehn, 
 M. Graml, S. Marek, B. Sertcan Gökmen, C. Schran, H. Forbert, R. Z. 
 Khaliullin, A. Kozhevnikov, M. Taillefumier, R. Meli, V. V. Rybkin, M. Brehm, 
 R. Schade, O. Schütt, J. V. Pototschnig, H. Mirhosseini, A. Knüpfer, D. Marx, 
 M. Krack, J. Hutter, T. D. Kühne.
 J. Phys. Chem. B 130, 1237-1310 (2026).
 The CP2K Program Package Made Simple.
 https://doi.org/10.1021/acs.jpcb.5c05851

 M. Graml, K. Zollner, D. Hernangómez-Pérez, P. E. Faria Junior, J. Wilhelm.
 J. Chem. Theory Comput. 20, 2202-2208 (2024).
 Low-scaling GW algorithm applied to twisted transition-metal dichalcogenide 
 heterobilayers.
 https://doi.org/10.1021/acs.jctc.3c01230

 T. D. Kühne, M. Iannuzzi, M. Del Ben, V. V. Rybkin, P. Seewald, F. Stein, T. 
 Laino, R. Z. Khaliullin, O. Schütt, F. Schiffmann, D. Golze, J. Wilhelm, S. 
 Chulkov, M. H. Bani-Hashemian, V. Weber, U. Borstnik, M. Taillefumier, A. S. 
 Jakobovits, A. Lazzaro, H. Pabst, T. Müller, R. Schade, M. Guidon, S. 
 Andermatt, N. Holmberg, G. K. Schenter, A. Hehn, A. Bussy, F. Belleflamme, G. 
 Tabacchi, A. Glöß, M. Lass, I. Bethune, C. J. Mundy, C. Plessl, M. Watkins, 
 J. VandeVondele, M. Krack, J. Hutter.
 J. Chem. Phys. 152, 194103 (2020).
 CP2K: An electronic structure and molecular dynamics software package - 
 Quickstep: Efficient and accurate electronic structure calculations.
 https://doi.org/10.1063/5.0007045

 O. Schuett, P. Messmer, J. Hutter, J. VandeVondele.
 Electronic Structure Calculations on Graphics Processing Units, 173-190 (2016).
 GPU-Accelerated Sparse Matrix-Matrix Multiplication for Linear Scaling Density 
 Functional Theory.
 https://doi.org/10.1002/9781118670712.ch8

 A. Heinecke, G. Henry, M. Hutchinson, H. Pabst.
 Proceedings of Intl. Supercomputing Conference, 981-991 (2016).
 LIBXSMM: Accelerating Small Matrix Multiplications by Runtime Code Generation.
 https://doi.org/10.1109/SC.2016.83

 U. Borstnik, J. VandeVondele, V. Weber, J. Hutter.
 Parallel Comput. 40, 47-58 (2014).
 Sparse matrix multiplication: The distributed block-compressed sparse row 
 library.
 https://doi.org/10.1016/j.parco.2014.03.012

 A. Marek, V. Blum, R. Johanni, V. Havu, B. Lang, T. Auckenthaler, A. Heinecke, 
 H. Bungartz, H. Lederer.
 J. Phys. Condens. Matter 26, 213201 (2014).
 The ELPA library: scalable parallel eigenvalue solutions for electronic 
 structure theory and computational science.
 https://doi.org/10.1088/0953-8984/26/21/213201

 J. VandeVondele, J. Hutter.
 J. Chem. Phys. 127, 114105 (2007).
 Gaussian basis sets for accurate calculations on molecular systems in gas and 
 condensed phases.
 https://doi.org/10.1063/1.2770708

 J. VandeVondele, M. Krack, F. Mohamed, M. Parrinello, T. Chassaing, J. Hutter.
 Comput. Phys. Commun. 167, 103-128 (2005).
 QUICKSTEP: Fast and accurate density functional calculations using a mixed 
 Gaussian and plane waves approach.
 https://doi.org/10.1016/j.cpc.2004.12.014

 M. Krack.
 Theor. Chem. Acc. 114, 145-152 (2005).
 Pseudopotentials for H to Kr optimized for gradient-corrected 
 exchange-correlation functionals.
 https://doi.org/10.1007/s00214-005-0655-y

 M. Frigo, S. G. Johnson.
 Proc. IEEE 93, 216-231 (2005).
 The design and implementation of FFTW3.
 https://doi.org/10.1109/JPROC.2004.840301

 C. Hartwigsen, S. Goedecker, J. Hutter.
 Phys. Rev. B 58, 3641-3662 (1998).
 Relativistic separable dual-space Gaussian pseudopotentials from H to Rn.
 https://doi.org/10.1103/PhysRevB.58.3641

 G. Lippert, J. Hutter, M. Parrinello.
 Mol. Phys. 92, 477-487 (1997).
 A hybrid Gaussian and plane wave density functional scheme.
 https://doi.org/10.1080/002689797170220

 S. Goedecker, M. Teter, J. Hutter.
 Phys. Rev. B 54, 1703-1710 (1996).
 Separable dual-space Gaussian pseudopotentials.
 https://doi.org/10.1103/PhysRevB.54.1703

 J. P. Perdew, K. Burke, M. Ernzerhof.
 Phys. Rev. Lett. 77, 3865-3868 (1996).
 Generalized gradient approximation made simple.
 https://doi.org/10.1103/PhysRevLett.77.3865

 P. E. Blöchl.
 J. Chem. Phys. 103, 7422-7428 (1995).
 Electrostatic decoupling of periodic images of plane‐wave‐expanded 
 densities and derived atomic point charges.
 https://doi.org/10.1063/1.470314

 R. H. Byrd, P. H. Lu, J. Nocedal, C. Y. Zhu.
 SIAM J. Sci. Comput. 16, 1190-1208 (1995).
 A Limited Memory Algorithm for Bound Constrained Optimization.
 https://doi.org/10.1137/0916069

 C. G. Broyden.
 Math. Comput. 19, 577-593 (1965).
 A class of methods for solving nonlinear simultaneous equations.
 https://doi.org/10.1090/S0025-5718-1965-0198670-6


 -------------------------------------------------------------------------------
 -                                                                             -
 -                                T I M I N G                                  -
 -                                                                             -
 -------------------------------------------------------------------------------
 SUBROUTINE                       CALLS  ASD         SELF TIME        TOTAL TIME
                                MAXIMUM       AVERAGE  MAXIMUM  AVERAGE  MAXIMUM
 CP2K                                 1  1.0     0.10     0.13 59977.07 59978.31
 run_propagation_linearized_bse       1  2.0     0.69     4.90 59974.19 59975.52
 solve_rk4_timestep                2848  3.0     3.52     5.25 57292.57 57314.22
 build_shared_sex_and_hartree     11392  4.0     2.42     3.19 40932.94 40965.42
 compute_sigma_ri_rs_complex      11392  5.0     3.44     4.26 34240.52 34266.17
 compute_sigma_ri_rs              22784  6.0     2.54     2.86 34031.46 34064.33
 dbcsr_multiply_generic          114412  7.8    11.10    12.13 31233.03 31535.68
 dbcsr_contract_ABA               45569  7.0     0.64     0.75 30014.64 30312.76
 multiply_cannon                 114412  8.8    23.21    25.25 24765.04 25711.58
 multiply_cannon_loop            114412  9.8    41.62    52.05 23715.53 24818.21
 parallel_gemm_fm_cosma          182726  6.0 21599.03 21705.81 21599.03 21705.81
 update_effective_ham_MO          11392  4.0     5.76     7.73 16352.76 16384.05
 multiply_cannon_multrec         915296 10.8 12458.95 13099.64 12472.21 13115.23
 mp_waitall_1                   9153388 12.0 11035.58 11893.69 11035.58 11893.69
 transform_ao_to_mo_covariant_c   22784  5.0     0.76     0.93 11388.76 11411.39
 transform_mo_to_ao_contravaria   22785  5.0     0.74     0.90  9767.22  9835.38
 multiply_cannon_metrocomm3      915296 10.8     3.02     3.61  4112.60  5034.43
 multiply_cannon_metrocomm1      915296 10.8     3.65     4.12  4284.21  4642.72
 make_m2s                        228824  8.8     7.28     8.19  4266.17  4364.99
 make_images                     228824  9.8   680.31   721.69  4226.08  4324.44
 hybrid_alltoall_any             274506 11.3   197.60  1638.46  2919.14  3194.62
 make_images_data                228824 10.8     3.55     3.99  2998.52  3193.87
 calculate_norms                1829552 10.8  2557.25  2784.97  2557.25  2784.97
 qs_energies                          1  3.0     0.02     0.03  2439.17  2439.22
 qs_energies_properties               1  4.0     0.00     0.01  2377.32  2377.37
 post_scf_bandstructure               1  5.0     0.00     0.01  2377.31  2377.37
 gw                                   1  6.0     0.00     0.02  2329.97  2330.03
 gw_calc_non_periodic_ri_rs           1  7.0     0.00     0.01  2319.76  2319.85
 dbcsr_complete_redistribute      68625  8.0   741.20   769.39  1976.82  2055.35
 compute_hartree_ri_rs_from_dia   11392  5.0     3.34     4.05  1804.04  1828.87
 hartree_potential_from_diag_ri   22784  6.0   222.83   244.74  1664.43  1697.93
 mp_sum_l                        343387  8.8   908.24  1378.41   908.24  1378.41
 copy_dbcsr_to_fm                 45678  7.0     1.12     1.27  1191.28  1339.39
 copy_fm_to_dbcsr                 22947  7.0     0.24     0.29  1259.44  1310.38
 ri_rs_grid_assembler                 1  8.0     0.00     0.01  1118.80  1118.87
 optimize_ri_rs_grid                  1  9.0    30.17    30.73  1118.36  1118.44
 evaluate_rirs_grid_cluster        3819 10.0  1053.42  1081.34  1053.42  1081.34
 make_images_sizes               228824 10.8     0.33     0.38   281.63  1050.13
 mp_alltoall_i44                 228824 11.8   281.30  1049.79   281.30  1049.79
 dbcsr_finalize                  230045  8.9     4.75     5.45   919.92  1011.66
 dbcsr_merge_all                 184274  9.9   273.42   292.50   907.50   998.76
 buffer_matrices_ensure_size     228824  9.8   719.06   919.89   719.06   919.89
 mp_sum_dv                        91410  7.0   595.83   798.81   595.83   798.81
 hadamard_product_inplace         22784  7.0   730.19   770.63   730.29   770.74
 mp_alltoall_d11v                342927  9.4   693.70   762.06   693.70   762.06
 compute_W                            1  8.0     0.00     0.00   740.25   740.51
 mp_alltoall_i22                 114307  9.0   443.07   567.63   443.07   567.63
 compute_fm_W_freq                   30  9.0     0.03     0.04   551.05   551.15
 mp_isend_dv                    2756604 12.2   363.33   506.36   363.33   506.36
 dbcsr_copy                      274565  8.5   416.88   442.88   420.27   446.06
 dbcsr_desymmetrize_deep          45682  8.0    41.37    44.30   328.90   445.40
 dbcsr_add_wm_from_matrix         23055  9.0   288.39   343.90   357.54   399.57
 multiply_cannon_metrocomm2      800884 10.8     3.23     3.72   239.70   360.03
 dbcsr_sort_data                  91694 10.8   321.08   335.10   321.08   335.10
 mp_allgather_i34                114412  9.8   197.92   310.34   197.92   310.34
 cp_fm_to_cfm                     91141  6.0   279.26   308.21   279.26   308.21
 compute_Sigma_c_and_QP_energie       1  8.0     0.01     0.01   293.63   293.67
 dbcsr_set                        91606  8.5     0.21     0.27   258.36   277.71
 dbcsr_zero                       91606  9.5   258.15   277.47   258.15   277.47
 make_images_pack                228824 10.8   185.26   246.96   187.76   249.72
 compute_Sigma_c                      1  9.0     0.00     0.00   215.84   215.85
 dbcsr_scale_anytype              46593  8.6   200.16   209.08   203.22   212.03
 cp_cfm_to_fm                     79749  5.6   184.54   203.32   184.54   203.32
 dbcsr_data_copy_aa2              91834 11.0   163.72   202.90   163.72   202.90
 contract_grid_panels_sigma_c        30 10.0     0.00     0.00   167.58   167.71
 tree_to_linear_d                 68643 11.0   138.33   166.28   138.33   166.28
 cp_fm_cholesky_invert               31 10.0   159.07   159.11   159.07   159.11
 mp_send_dv                       11401  4.0    61.69   150.35    61.69   150.35
 get_mat_chi_Gamma_tau                1  8.0     0.00     0.00   133.04   133.05
 mp_sum_d                         23455  4.0    62.43   130.96    62.43   130.96
 cp_cfm_scale_and_add             88303  5.0    93.90   105.72    93.90   105.72
 contract_grid_panels                31  9.0     0.00     0.00    99.66    99.83
 dbcsr_data_release             9679405 10.7    82.74    94.75    82.74    94.75
 cp_fm_write_formatted             5696  3.0    42.05    57.51    71.93    94.74
 cp_fm_write_unformatted           5699  3.0    38.96    54.26    72.10    94.51
 copy_dbcsr_to_fm_bc              45678  8.0    76.77    84.68    77.43    85.41
 mp_recv_dv                      558722  4.0     1.32    84.44     1.32    84.44
 dbcsr_fill_wm_from_matrix        23055 10.0    68.16    83.16    68.43    83.49
 setup_rec_index_2d              228824  9.8    74.57    78.81    74.57    78.81
 build_G_ao                         121  9.5     0.00     0.00    77.66    77.87
 compute_QP_energies                  1  9.0     0.00     0.00    77.78    77.82
 cp_fm_trace_a0b0t0               17094  3.0     9.95    12.79    37.53    74.87
 cp_cfm_transpose                 22784  5.0    52.97    74.47    52.97    74.47
 copy_fm_to_dbcsr_bc              22947  8.0    35.74    41.07    63.74    71.36
 mp_irecv_dv                    2755586 12.2    25.01    71.21    25.01    71.21
 dbcsr_destroy                  1075713  8.8     2.52     2.82    59.65    70.88
 G_occ_vir                          121 10.5     3.26     3.35    69.87    70.23
 cp_fm_transpose                  17095  3.0    27.42    66.62    27.42    66.62
 to_Gamma_and_mo_real                62 10.0     0.02     0.02    64.50    64.50
 cp_fm_cholesky_decompose            34 10.0    61.87    64.16    61.87    64.16
 cp_fm_diag_elpa                      6  8.3     0.00     0.00    63.53    63.54
 cp_fm_diag_elpa_base                 6  9.3    63.22    63.36    63.51    63.51
 mp_cart_sub                      91371  9.0    51.44    51.58    51.44    51.58
 dbcsr_sort_indices              549414 11.7    48.36    50.06    48.36    50.06
 quick_finalize                  274506 11.5     4.75     5.40    48.41    50.01
 dbcsr_get_diag                   22784  7.0    45.39    48.98    45.45    49.05
 dbcsr_special_finalize          228824 10.8     0.67     0.76    47.39    48.90
 mp_cart_create                   45709  9.0    39.82    46.43    39.82    46.43
 mp_alltoall_i11v                251557  9.0    37.69    41.90    37.69    41.90
 dbcsr_make_index_list           228824  9.8    32.24    34.00    32.24    34.00
 dbcsr_reserve_all_blocks         22950  9.0     0.11     0.13    27.38    32.36
 dbcsr_reserve_blocks             22964 10.0    27.12    32.12    27.29    32.27
 scf_env_do_scf                       1  4.0     0.00     0.00    29.17    29.31
 scf_env_do_scf_inner_loop            2  5.0     0.00     0.00    29.17    29.31
 qs_scf_new_mos                       2  6.0     0.00     0.00    24.18    24.19
 eigensolver_symm                     2  7.0     0.00     0.00    23.96    23.96
 mask_mo_block_cfm                34176  5.0    16.25    23.83    16.25    23.83
 eval_bandstructure_properties        1  6.0     0.01     0.01    23.72    23.72
 create_and_init_bs_env               1  6.0     0.00     0.00    23.62    23.63
 diagonalize_ks_matrix                1  7.0     0.00     0.00    22.63    22.64
 cp_fm_geeig_canon                    1  8.0     0.00     0.00    22.63    22.63
 dbcsr_create_new               1121438  9.6    13.03    13.74    18.22    22.12
 dbcsr_make_untransposed_blocks  137353  8.8    14.16    18.57    16.79    21.22
 compute_Z_lP                         1  8.0     0.00     0.00    20.90    20.90
 compute_Z_lP_standard                1  9.0     0.01     0.02    20.90    20.90
 cp_cfm_geeig                         1  7.0     0.00     0.00    17.89    17.90
 multiply_cannon_multrec_finali  114412 11.8     0.39     0.47    13.26    17.26
 qs_energies_init_hamiltonians        1  4.0     0.01     0.01    17.00    17.00
 qs_env_update_s_mstruct              1  5.0     0.00     0.00    16.90    16.94
 dbcsr_mm_multrec_finalize       114412 12.8     8.34     9.99    12.87    16.82
 cp_ddapc_init                        1  6.0     0.00     0.00    16.32    16.32
 cp_ddapc_create                      1  7.0     0.01     0.01    16.32    16.32
 ddapc_eval_AmI                       1  8.0     0.48     0.50    15.90    15.92
 init_scf_run                         1  4.0     0.00     0.01    15.26    15.26
 dbcsr_data_new                 5946180 10.2     9.43    13.79     9.43    13.79
 cp_cfm_heevd                         1  8.0     0.00     0.00    13.75    13.75
 cp_cfm_heevd_base                    1  9.0    13.75    13.75    13.75    13.75
 release_dbcsr_topology_and_mat   68355  7.0     0.13     0.15    11.68    13.71
 compute_Sigma_x                      1  8.0     0.00     0.00    12.99    13.27
 cp_fm_geeig                          1 10.0     0.00     0.00    13.23    13.24
 build_A_matrix                       1  9.0    10.92    12.28    10.92    12.28
 dbcsr_new_transposed             68599  8.7     1.76     2.39    10.49    11.35
 cp_fm_uplo_to_full                  67 10.0     7.46    10.61     7.46    10.61
 dbcsr_mm_multrec_init           114412  9.8     0.26     0.34     9.89    10.48
 create_and_init_bs_env_for_gw        1  7.0     0.00     0.00    10.21    10.28
 dbcsr_mm_csr_init               114412 10.8     2.43     2.73     9.63    10.26
 multiply_cannon_metrocomm4      800884 10.8     2.31     2.67     7.96    10.01
 print_ft                             1  3.0     0.00     0.06     8.58     9.44
 greenx_refine_ft                     3  4.0     8.58     9.44     8.58     9.44
 initialize_sex_selfenergy            1  3.0     0.00     0.00     9.32     9.32
 rt_bse_ri_rs_ensure_W0_grid          1  4.0     0.00     0.00     9.32     9.32
 get_electron_number_MO            2848  3.0     0.15     0.19     5.17     8.97
 get_RI_basis                         1  8.0     0.00     0.00     8.36     8.41
 compute_Minv_Gamma                   1  9.0     0.01     0.01     8.35     8.40
 dbcsr_iterator_start           1099149  9.9     3.50     3.79     7.60     8.01
 compute_d_lp                        19 10.0     3.86     4.02     7.62     7.98
 compute_fm_chi_Gamma_freq           30  9.0     0.00     0.00     7.76     7.88
 multrec_filtering                91562 13.8     4.41     7.82     4.41     7.82
 hadamard_product                    91 10.7     4.75     5.01     7.41     7.81
 setup_buffer_matrices           228824  9.8     1.13     1.54     4.23     7.77
 fill_hash_tables                114412 11.8     6.99     7.61     6.99     7.61
 initialize_hartree_potential         1  3.0     0.00     0.00     7.17     7.18
 rt_bse_ri_rs_ensure_V_grid           1  4.0     0.00     0.00     7.17     7.18
 dbcsr_scale_d                    22815  7.0     0.05     0.06     4.59     6.64
 compute_V_MinvVsqrt                  1  9.0     0.01     0.02     6.30     6.32
 dbcsr_work_create               458780  9.9     3.57     4.40     5.36     6.25
 parallel_gemm_cfm                   18  6.4     0.00     0.00     6.22     6.24
 parallel_gemm_cfm_cosma             18  7.4     6.22     6.24     6.22     6.24
 cp_fm_scale_and_add                935  9.9     5.82     6.14     5.82     6.14
 Fourier_transform_w_to_t            30  9.0     0.00     0.00     5.67     5.98
 dbcsr_work_destroy_all          458780 10.9     3.33     3.83     5.11     5.96
 RI_2c_integral_mat                   4  7.2     0.01     0.01     5.51     5.80
 compute_proj_mo_on_kind              1  7.0     0.03     0.04     5.65     5.65
 abc_contract_xsmm               340979 10.2     5.30     5.52     5.30     5.52
 mp_sum_dm                            3  7.0     4.63     5.47     4.63     5.47
 mp_isend_iv                    3027741 11.8     4.11     5.26     4.11     5.26
 dbcsr_make_index_exist         1121438 10.6     3.27     5.02     3.27     5.02
 transpose_index_local            68599  9.7     0.86     0.92     4.47     4.86
 dbcsr_iterator_stop            1099149  9.9     3.53     4.18     4.07     4.78
 dbcsr_iterator_seek            1099149 10.9     4.10     4.37     4.10     4.37
 merge_index                     184274 10.9     3.92     4.34     3.92     4.34
 extract_masked_blocks              244 10.6     3.23     3.72     3.74     4.34
 qs_ks_build_kohn_sham_matrix         3  8.3     0.01     0.03     4.24     4.33
 dbcsr_add_d                        931 10.0     0.00     0.00     4.04     4.30
 dbcsr_add_anytype                  931 11.0     2.53     2.65     4.04     4.30
 fm_write                             1  9.0     0.00     0.01     3.91     4.17
 dbcsr_make_dbcsr_index          550349 11.7     3.85     3.97     3.85     3.97
 build_gram_jacobi_blas              19 10.0     0.86     0.91     3.78     3.91
 cp_fm_create                     34584  6.0     2.73     3.50     2.73     3.50
 mp_irecv_iv                    3028556 11.8     2.49     3.43     2.49     3.43
 compute_Z_lP_standard_dpotrf        19 10.0     3.16     3.39     3.16     3.39
 qs_ks_update_qs_env                  2  6.0     0.00     0.00     3.31     3.32
 rebuild_ks_matrix                    2  7.0     0.00     0.00     3.31     3.32
 cp_cfm_zscale                    22784  5.0     2.28     3.23     2.28     3.23
 mp_sum_iv                       114473  9.8     2.44     3.08     2.44     3.08
 scf_env_initial_rho_setup            1  5.0     0.00     0.00     3.05     3.06
 build_gram_jacobi_blas_dsyrk        19 11.0     2.92     3.01     2.92     3.01
 fft_wrap_pw1pw2                     46 11.0     0.00     0.00     2.85     2.91
 build_2c_integrals                   4  8.2     1.54     1.82     2.82     2.89
 dbcsr_binary_write                   1 10.0     2.76     2.76     2.76     2.76
 fft_wrap_pw1pw2_300                 28 12.3     0.09     0.10     2.69     2.75
 dbcsr_distribution_new          412462  8.8     2.55     2.68     2.55     2.68
 compute_d_lp_dgemm               12060 11.0     2.48     2.62     2.48     2.62
 initialize_moments                   1  3.0     0.01     0.02     2.61     2.61
 fft3d_ps                            46 13.0     0.66     0.74     2.41     2.48
 qs_rho_update_rho_low                3  6.0     0.00     0.00     2.46     2.47
 calculate_rho_elec                   3  7.0     0.04     0.04     2.46     2.47
 transform_ao_to_mo_covariant_f       6  4.0     0.00     0.00     2.42     2.43
 cp_cfm_triangular_multiply           3  8.0     2.12     2.13     2.12     2.13
 build_phi_on_sphere                 19 10.0     0.16     0.17     1.97     2.05
 evaluate_ao_on_points             3437 11.0     1.85     1.93     1.85     1.93
 calculate_first_density_matrix       1  6.0     0.00     0.01     1.78     1.79
 cp_fm_gemm                           3  9.0     1.70     1.70     1.70     1.70
 qs_vxc_create                        3  9.3     0.00     0.00     1.66     1.68
 xc_vxc_pw_create                     2 10.0     0.04     0.04     1.66     1.68
 mp_alltoall_z22v                    46 15.0     1.50     1.64     1.50     1.64
 cp_cfm_cholesky_decompose            2  8.0     1.61     1.63     1.61     1.63
 setup_square_topology            45694  7.0     1.01     1.31     1.33     1.63
 cp_fm_symm                           2  8.0     1.59     1.59     1.59     1.59
 mp_comm_free                    137139  9.0     1.40     1.56     1.40     1.56
 initialize_rtbse_env                 1  3.0     1.52     1.53     1.55     1.55
 sum_up_and_integrate                 3  9.3     0.00     0.00     1.39     1.40
 integrate_v_rspace                   3 10.3     0.00     0.00     1.39     1.40
 xc_pw_derive                        12 12.0     0.00     0.00     1.22     1.28
 density_rs2pw                        3  8.0     0.00     0.00     1.25     1.27
 qs_init_subsys                       1  2.0     0.03     0.05     1.21     1.25
 mp_max_l                            22  1.8     0.89     1.24     0.89     1.24
 cp_cfm_triangular_invert             1  8.0     1.24     1.24     1.24     1.24
 read_mo_set_from_restart             1  7.0     0.03     0.85     1.22     1.23
 mp_bcast_dm_src                   2024  8.0     1.18     1.20     1.18     1.20
 qs_env_setup                         1  3.0     0.01     0.02     1.13     1.20
 cp_fm_triangular_invert              1 11.0     1.20     1.20     1.20     1.20
 qs_env_rebuild_pw_env                2  4.0     0.00     0.00     1.12     1.20
 pw_env_rebuild                       1  5.0     0.01     0.01     1.12     1.20
 fill_fm_Sigma_c_Gamma_time           1 10.0     0.00     0.00     1.19     1.20
 mp_sync                             11  9.1     0.54     1.20     0.54     1.20
 pw_grid_setup                        5  5.2     0.00     0.00     1.10     1.18
 pw_grid_setup_internal               5  6.2     0.01     0.01     1.10     1.18
 grid_collocate_task_list             3  8.0     1.12     1.16     1.12     1.16
 extract_grid_panel                 122 10.5     0.87     0.97     1.01     1.12
 cp_fm_triangular_multiply            4 10.2     1.11     1.12     1.11     1.12
 potential_pw2rs                      3 11.3     0.00     0.00     1.06     1.07
 ab_contract                    2413978  8.6     0.99     1.03     0.99     1.03
 compute_V_xc                         1  8.0     0.00     0.00     0.95     1.03
 compute_Z_lP_standard_dpotrs        19 10.0     0.97     1.03     0.97     1.03
 cp_fm_copy_general                   4  8.2     0.00     0.00     0.97     1.00
 dbcsr_switch_data_area          571942 11.1     0.51     0.57     0.86     0.97
 yz_to_x                             19 13.7     0.10     0.12     0.89     0.97
 transfer_rs2pw                      14  8.8     0.00     0.00     0.87     0.95
 qs_ks_ddapc                          3  9.3     0.00     0.00     0.91     0.94
 check_positive_definite_overla       1  7.0     0.00     0.00     0.92     0.92
 x_to_yz                             21 14.5     0.13     0.15     0.83     0.88
 build_2c_coulomb_matrix_kp           1 10.0     0.00     0.00     0.85     0.87
 lattice_sum                          1 11.0     0.01     0.01     0.83     0.85
 mp_waitany                         990 12.1     0.60     0.84     0.60     0.84
 xc_rho_set_and_dset_create           2 11.0     0.03     0.03     0.81     0.83
 xc_pw_divergence                     2 11.0     0.00     0.00     0.80     0.83
 transfer_pw2rs                      13 12.0     0.00     0.00     0.76     0.77
 dbcsr_get_data_size_used        229956  9.9     0.72     0.77     0.72     0.77
 cp_fm_to_fm_matrix                 163 11.0     0.63     0.72     0.63     0.72
 setup_time_and_frequency_minim       1  8.0     0.00     0.00     0.65     0.72
 build_minimax_time_frequency_g       1  9.0     0.00     0.00     0.65     0.72
 fit_l_sq_weights                     3 10.0     0.65     0.71     0.65     0.71
 cp_fm_finish_copy_general            4  9.2     0.63     0.65     0.68     0.70
 apply_delta_pulse_MO                 1  3.0     0.00     0.00     0.66     0.66
 propagate_density                    1  4.0     0.00     0.00     0.65     0.65
 bch_propagate                        1  5.0     0.00     0.00     0.65     0.65
 cp_ddapc_apply_CD                    3 10.3     0.00     0.01     0.65     0.65
 transfer_rs2pw_300                   5  9.4     0.06     0.08     0.56     0.65
 mp_bcast_dm                          2 11.5     0.54     0.63     0.54     0.63
 compute_v_transl                     1 12.0     0.61     0.62     0.62     0.63
 dbcsr_make_index_local_row      228824  9.8     0.56     0.61     0.56     0.61
 calculate_rho_core                   1  6.0     0.04     0.05     0.53     0.58
 dbcsr_filter_anytype               164 10.2     0.05     0.06     0.47     0.51
 pw_grid_sort                         5  7.2     0.31     0.32     0.48     0.50
 transfer_pw2rs_300                   4 12.2     0.06     0.06     0.46     0.49
 collect_used_col_blocks             92 10.7     0.01     0.01     0.35     0.48
 build_grid_cache                     1  9.0     0.40     0.43     0.43     0.47
 scf_post_calculation_gpw             1  4.0     0.00     0.00     0.41     0.46
 write_available_results              1  5.0     0.00     0.00     0.40     0.46
 write_mo_free_results                1  6.0     0.02     0.03     0.40     0.46
 dbcsr_get_local_cols            114412  8.8     0.36     0.44     0.36     0.44
 make_basis_sm                        1  7.0     0.00     0.00     0.43     0.44
 dbcsr_get_local_rows            114412  8.8     0.38     0.43     0.38     0.43
 modify_hartree_pot                   3 11.3     0.38     0.42     0.38     0.42
 ewald_ddapc_pot                      1  8.0     0.03     0.03     0.40     0.41
 eval_pw_TabLR                        1  2.0     0.27     0.30     0.30     0.39
 gw_3c_ctx_create                     2 10.0     0.00     0.22     0.27     0.35
 pw_grid_remap                        4  8.0     0.01     0.01     0.33     0.34
 calculate_dm_sparse                  3  7.0     0.00     0.00     0.31     0.33
 mp_sum_im3                           5  9.2     0.32     0.32     0.32     0.32
 cp_dbcsr_plus_fm_fm_t                3  8.0     0.00     0.00     0.31     0.32
 parser_read_line                 21948  4.1     0.00     0.00     0.25     0.32
 parser_read_line_low                27  5.1     0.00     0.03     0.25     0.32
 broadcast_input_information         27  6.1     0.01     0.02     0.25     0.32
 cp_fm_start_copy_general             4  9.2     0.22     0.23     0.29     0.31
 grid_integrate_task_list             3 11.3     0.29     0.31     0.29     0.31
 fm_add_on_diag                      60 10.0     0.29     0.30     0.29     0.30
 create_fm_W_MIC_time                 1  9.0     0.00     0.00     0.26     0.29
 mixing_init                          1  6.0     0.27     0.28     0.28     0.28
 cfm_ikp_from_fm_Gamma                3  7.3     0.26     0.27     0.26     0.27
 mp_bcast_b_src                      11  9.0     0.07     0.26     0.07     0.26
 create_qs_kind_set                   1  2.0     0.00     0.00     0.23     0.24
 read_qs_kind                         2  3.0     0.04     0.06     0.23     0.24
 dbcsr_mm_sched_init             114412 11.8     0.14     0.16     0.20     0.23
 reserve_blocks_within_radius         1  5.0     0.14     0.18     0.16     0.20
 write_mo_set_to_restart              2  6.0     0.00     0.00     0.06     0.20
 pw_poisson_solve                     3  9.3     0.00     0.01     0.19     0.20
 write_mo_set_low                     1  7.0     0.00     0.00     0.06     0.20
 mulliken_population_analysis         1  7.0     0.00     0.00     0.13     0.19
 get_ddapc                            3 11.3     0.00     0.00     0.19     0.19
 transfer_pw2rs_40                    3 13.3     0.09     0.10     0.17     0.18
 sort_shells                          5  8.2     0.17     0.18     0.17     0.18
 pw_integral_ab_c1d_c1d_gs            6 10.8     0.11     0.11     0.15     0.18
 get_ddapc-charges                    3 12.3     0.03     0.03     0.17     0.17
 xc_functional_eval                   2 12.0     0.00     0.00     0.14     0.17
 pbe_lda_eval                         2 13.0     0.14     0.17     0.14     0.17
 lattice_sum_R_to_k                   8 12.0     0.15     0.17     0.15     0.17
 mp_sum_im                            8  7.5     0.16     0.17     0.16     0.17
 transfer_rs2pw_40                    3 10.0     0.06     0.07     0.15     0.16
 dbcsr_get_global_row_map        114412  8.8     0.13     0.16     0.13     0.16
 transfer_pw2rs_100                   3 13.3     0.01     0.01     0.11     0.16
 mp_bcast_i_src                     113  7.2     0.09     0.16     0.09     0.16
 transfer_rs2pw_100                   3 10.0     0.01     0.03     0.13     0.15
 mp_bcast_am_src                     27  7.1     0.14     0.15     0.14     0.15
 cp_dbcsr_sm_fm_multiply              1  8.0     0.00     0.00     0.14     0.15
 dbcsr_mm_sched_finalize         114412 13.8     0.12     0.15     0.12     0.15
 check_for_restart_files              1  8.0     0.10     0.14     0.10     0.14
 pw_scatter_p                        24 13.6     0.14     0.14     0.14     0.14
 build_b_vector                       3 13.3     0.13     0.14     0.13     0.14
 gspace_mixing                        1  6.0     0.01     0.02     0.14     0.14
 pw_copy                             45 11.3     0.13     0.13     0.13     0.13
 calculate_hirshfeld_normalizat       1  7.0     0.07     0.07     0.13     0.13
 pw_derive                           21 12.3     0.12     0.13     0.12     0.13
 topology_control                     1  2.0     0.01     0.01     0.10     0.13
 pw_gather_p                         22 12.5     0.12     0.12     0.12     0.12
 mp_sendrecv_dv                     378 11.0     0.12     0.12     0.12     0.12
 hirshfeld_integration                1  7.0     0.08     0.08     0.12     0.12
 coordinate_control                   1  3.0     0.00     0.00     0.08     0.12
 fft_wrap_pw1pw2_100                  6 11.7     0.00     0.00     0.11     0.12
 coordinate_control_READ_COORDI       1  4.0     0.00     0.01     0.08     0.12
 read_coordinate_xyz                  1  5.0     0.01     0.01     0.07     0.12
 cp_fm_set_all                       25  5.4     0.10     0.12     0.10     0.12
 mp_isend_dm3                        30 12.1     0.06     0.11     0.06     0.11
 create_tensors                       1  8.0     0.00     0.00     0.11     0.11
 cp_dbcsr_sm_fm_multiply_core         1  9.0     0.00     0.00     0.10     0.11
 build_local_moment_matrix            2  4.0     0.09     0.10     0.09     0.10
 dbcsr_get_global_col_map        114412  8.8     0.08     0.10     0.08     0.10
 create_3c_t                          2  9.0     0.01     0.01     0.09     0.10
 pw_poisson_set                       4  9.2     0.00     0.00     0.09     0.09
 classify_z_lp_atoms                  1 10.0     0.07     0.07     0.08     0.09
 build_core_hamiltonian_matrix        1  5.0     0.01     0.01     0.07     0.08
 dbcsr_mm_hostdrv_init           114412 12.8     0.06     0.08     0.06     0.08
 print_ri_rs_memory_estimate          1  8.0     0.07     0.07     0.08     0.08
 analyt_conti_and_print               1 10.0     0.03     0.06     0.04     0.07
 atomic_basis_at_grid_point           1  8.0     0.01     0.01     0.07     0.07
 dbt_distribution_new_expert         10 11.5     0.00     0.00     0.07     0.07
 check_spline_interp_TabLR            1  3.0     0.00     0.07     0.00     0.07
 qs_create_task_list                  1  6.0     0.00     0.01     0.06     0.07
 create_3c_tensor                     2 10.0     0.00     0.01     0.07     0.07
 pw_copy_to_array                    22 12.5     0.05     0.07     0.05     0.07
 print_matrix_occupation              3  9.0     0.00     0.00     0.03     0.07
 mp_allgather_i                      10 10.4     0.05     0.06     0.05     0.06
 generate_qs_task_list                1  7.0     0.02     0.02     0.05     0.06
 pw_copy_from_array                  24 13.6     0.04     0.06     0.04     0.06
 read_gw_input_parameters             1  8.0     0.00     0.00     0.05     0.05
 mp_sum_i                           407 10.0     0.04     0.05     0.04     0.05
 dbt_tas_distribution_new            10 12.5     0.03     0.03     0.05     0.05
 fill_phi_for_atom                   19  9.0     0.00     0.00     0.04     0.05
 pw_grid_assign                       5  7.2     0.05     0.05     0.05     0.05
 pw_axpy                             48  6.7     0.05     0.05     0.05     0.05
 read_rirs_grid_file                  2 10.0     0.03     0.05     0.03     0.05
 allocate_and_fill_fm_ks_fm_s         1  7.0     0.00     0.00     0.04     0.05
 create_product_matrix              334 10.6     0.01     0.01     0.04     0.05
 read_rirs_grid_opt                   1  9.0     0.04     0.05     0.04     0.05
 rs_gather_matrices                   3 11.3     0.00     0.01     0.03     0.04
 write_particle_distances             1  3.0     0.04     0.04     0.04     0.04
 distribute_tasks                     1  8.0     0.00     0.00     0.03     0.04
 rs_scatter_matrices                  3  8.0     0.00     0.00     0.04     0.04
 build_overlap_matrix_low             1  6.0     0.02     0.02     0.03     0.04
 store_Z_lP_columns                  19 10.0     0.03     0.04     0.03     0.04
 transfer_rs2pw_20                    3 10.0     0.01     0.01     0.03     0.04
 mp_irecv_dm3                        30 12.1     0.00     0.04     0.00     0.04
 cp_dbcsr_alloc_block_from_nbl       14  7.1     0.00     0.00     0.03     0.03
 mp_mem_avail_per_rank_GB             4  9.8     0.00     0.00     0.02     0.03
 cp_fm_redistribute_start             6  9.3     0.00     0.00     0.02     0.03
 transfer_pw2rs_20                    3 13.3     0.01     0.01     0.03     0.03
 broyden_mixing                       1  7.0     0.03     0.03     0.03     0.03
 mp_comm_split_direct                 8 13.6     0.02     0.03     0.02     0.03
 load_balance_distributed             2  9.0     0.00     0.00     0.02     0.03
 fft_wrap_pw1pw2_40                   6 11.7     0.00     0.00     0.03     0.03
 mp_comm_split_type                   4 10.8     0.02     0.03     0.02     0.03
 mp_max_i                           628  1.8     0.02     0.03     0.02     0.03
 compute_load_list                    4 10.0     0.00     0.00     0.02     0.03
 get_current_loads                   12 10.0     0.00     0.00     0.02     0.03
 dbt_pgrid_create_expert             13 11.9     0.00     0.00     0.02     0.03
 mp_maxloc_dv                      1517  1.0     0.03     0.03     0.03     0.03
 mp_alltoall_l                       13 10.9     0.01     0.03     0.01     0.03
 pw_integral_ab_r3d_r3d_rs           45  3.0     0.02     0.03     0.02     0.03
 pw_zero                             51  4.8     0.02     0.03     0.02     0.03
 get_parameters_from_qs_env           1  7.0     0.00     0.00     0.01     0.03
 dbt_create_new                       5 11.0     0.00     0.00     0.03     0.03
 fft_wrap_pw1pw2_20                   6 11.7     0.00     0.00     0.02     0.02
 dbcsr_frobenius_norm                 1  5.0     0.02     0.02     0.02     0.02
 pw_grid_distribute                   5  7.2     0.02     0.02     0.02     0.02
 populate_C_active                    1  3.0     0.00     0.00     0.02     0.02
 cp_fm_to_fm_submat_general           1  4.0     0.02     0.02     0.02     0.02
 connectivity_control                 1  3.0     0.00     0.00     0.02     0.02
 rs_grid_zero                         9 12.3     0.02     0.02     0.02     0.02
 cp_fm_to_fm_columns                  3  7.0     0.01     0.02     0.01     0.02
 dbt_tas_create_split                 6 13.2     0.00     0.01     0.02     0.02
 dbt_tas_create_split_rows_or_c       6 14.2     0.00     0.00     0.02     0.02
 allocate_blocks_v_L                  2 12.0     0.02     0.02     0.02     0.02
 mp_max_d                           210  9.9     0.01     0.02     0.01     0.02
 cp_cfm_norm                          8  5.8     0.02     0.02     0.02     0.02
 check_gw_input                       1  9.0     0.00     0.00     0.01     0.02
 resolve_memory_per_proc              1 10.0     0.00     0.00     0.01     0.02
 set_blocks_to_matrix_v_kp            1 12.0     0.02     0.02     0.02     0.02
 build_core_ppnl                      1  6.0     0.01     0.02     0.01     0.02
 build_core_ppl                       1  6.0     0.01     0.02     0.01     0.02
 allocate_tmp                         1 11.0     0.00     0.00     0.02     0.02
 allocate_blocks_v_kp                 1 12.0     0.02     0.02     0.02     0.02
 get_n_ao_in_sphere                2320 10.0     0.02     0.02     0.02     0.02
 self_consistency_check               2  6.0     0.00     0.00     0.01     0.02
 cp_sm_mix                            2  7.0     0.00     0.00     0.01     0.02
 mp_bcast_iv_src                     27  7.1     0.01     0.02     0.01     0.02
 topology_generate_bond               1  4.0     0.00     0.00     0.01     0.02
 xz_to_yz                             3 12.0     0.00     0.00     0.01     0.02
 create_2c_t                          1  9.0     0.00     0.00     0.01     0.01
 cube_transpose_2                     3 12.0     0.00     0.00     0.00     0.01
 create_2c_tensor                     3 10.0     0.00     0.00     0.01     0.01
 build_qs_neighbor_lists              1  5.0     0.00     0.00     0.01     0.01
 mp_alltoall_i                        1 13.0     0.01     0.01     0.01     0.01
 topology_generate_bond_3             1  5.0     0.00     0.00     0.01     0.01
 ddapc_eval_gfunc                     1  8.0     0.01     0.01     0.01     0.01
 mp_min_d                             5 10.0     0.01     0.01     0.01     0.01
 mp_bcast_dv_src                      2  8.0     0.01     0.01     0.01     0.01
 mp_comm_size                     17234  4.1     0.01     0.01     0.01     0.01
 delete_unnecessary_files             1  9.0     0.00     0.00     0.00     0.01
 safe_delete                         60 10.0     0.00     0.01     0.00     0.01
 pw_multiply_with                     3 10.3     0.01     0.01     0.01     0.01
 mp_comm_dup                         10 11.9     0.01     0.01     0.01     0.01
 pw_scale                             9 10.8     0.01     0.01     0.01     0.01
 build_fist_neighbor_lists            1  6.0     0.00     0.00     0.01     0.01
 evaluate_core_matrix_traces          2  7.0     0.00     0.00     0.00     0.01
 calculate_ptrace_kp                  4  8.0     0.00     0.00     0.00     0.01
 dbcsr_dot                            4  9.0     0.00     0.00     0.00     0.01
 rs_grid_create_descriptor            4  6.0     0.00     0.00     0.01     0.01
 mp_bcast_av                        759  1.0     0.01     0.01     0.01     0.01
 dbcsr_crop_matrix                    7 11.1     0.00     0.00     0.01     0.01
 scale_rows_by_diag                  38 10.0     0.00     0.01     0.00     0.01
 qs_scf_ensure_work_matrices          1  4.0     0.00     0.00     0.00     0.01
 dbcsr_copy_submatrix                 7 12.1     0.00     0.00     0.01     0.01
 mp_isendrecv_dv                    378 14.3     0.00     0.01     0.00     0.01
 build_neighbor_lists                 1  7.0     0.01     0.01     0.01     0.01
 build_kinetic_matrix_low             1  6.0     0.00     0.01     0.01     0.01
 mp_comm_rank                     17234  4.1     0.01     0.01     0.01     0.01
 create_local_tasks                   1  9.0     0.00     0.00     0.01     0.01
 qs_scf_post_charges                  1  5.0     0.00     0.01     0.00     0.01
 cp_cfm_to_cfm_columns                1  8.0     0.01     0.01     0.01     0.01
 dbt_tas_create_new                   5 12.0     0.01     0.01     0.01     0.01
 get_fft_scratch                     47 13.8     0.00     0.01     0.00     0.01
 calculate_ecore_overlap              1  5.0     0.00     0.00     0.00     0.01
 pw_poisson_rebuild                   3 10.3     0.01     0.01     0.01     0.01
 allocate_matrices                    1  9.0     0.00     0.00     0.01     0.01
 mpools_rebuild_fm_pools              1  4.0     0.00     0.00     0.00     0.01
 dbcsr_index_compact                152 11.4     0.01     0.01     0.01     0.01
 mp_sum_lv                          138  2.2     0.00     0.01     0.00     0.01
 mp_alltoall_l11v                     1 10.0     0.01     0.01     0.01     0.01
 restraint_control                    1  3.0     0.00     0.00     0.00     0.01
 time_to_freq                         1 10.0     0.01     0.01     0.01     0.01
 continuation_pade                  207 11.0     0.00     0.00     0.00     0.01
 qs_scf_print_scf_summary             1  6.0     0.00     0.01     0.00     0.01
 write_mo_dependent_results           1  6.0     0.00     0.01     0.00     0.01
 pw_pool_give_back_pw               102 10.3     0.00     0.01     0.00     0.01
 get_sigma_c_newton_pade            207 12.0     0.00     0.01     0.00     0.01
 distribution_3d_create               1 10.0     0.00     0.00     0.01     0.01
 mp_alltoall_z11v                     6 14.7     0.00     0.01     0.00     0.01
 mp_bcast_av_src                      1  7.0     0.00     0.01     0.00     0.01
 scf_c_create                         1  3.0     0.00     0.01     0.00     0.01
 mp_bcast_i                           6 15.2     0.01     0.01     0.01     0.01
 build_neighbor_lists_RPA_2c_nl       4  8.2     0.00     0.01     0.00     0.01
 external_control                     2  6.0     0.00     0.01     0.01     0.01
 scf_c_read_parameters                1  3.0     0.00     0.00     0.00     0.00
 dbcsr_copy_into_existing             1  7.0     0.00     0.00     0.00     0.00
 build_neighbor_lists_sap_ppnl        1  6.0     0.00     0.00     0.00     0.00
 pw_pool_create_pw                  100 10.1     0.00     0.00     0.00     0.00
 distribution_2d_create               2 11.0     0.00     0.00     0.00     0.00
 qs_env_rebuild_rho                   1  6.0     0.00     0.00     0.00     0.00
 init_interaction_radii               3  7.3     0.00     0.00     0.00     0.00
 grid_create_task_list                1  8.0     0.00     0.00     0.00     0.00
 yz_to_xz                             3 15.3     0.00     0.00     0.00     0.00
 build_3c_neighbor_lists              1 10.0     0.00     0.00     0.00     0.00
 xc_pw_smooth                         2 11.0     0.00     0.00     0.00     0.00
 distribute_molecules_2d              2  7.5     0.00     0.00     0.00     0.00
 write_qs_particle_coordinates        1  3.0     0.00     0.00     0.00     0.00
 grid_free_task_list                  1  2.0     0.00     0.00     0.00     0.00
 dbcsr_make_images_dense              6 11.0     0.00     0.00     0.00     0.00
 dbcsr_make_dense_low                 6 12.0     0.00     0.00     0.00     0.00
 connectivity_control_check_ele       1  4.0     0.00     0.00     0.00     0.00
 build_neighbor_lists_sac_ppl         1  6.0     0.00     0.00     0.00     0.00
 correct_obvious_fitting_fails        1 11.0     0.00     0.00     0.00     0.00
 make_dense_data                      6 13.0     0.00     0.00     0.00     0.00
 multi_fft                            1  4.0     0.00     0.00     0.00     0.00
 deallocate_blocks_v_L                2 12.0     0.00     0.00     0.00     0.00
 optimize_load_list                   2 10.0     0.00     0.00     0.00     0.00
 setup_kpoints_DOS_large_cell_G       1  7.0     0.00     0.00     0.00     0.00
 resp_fit                             1  6.0     0.00     0.00     0.00     0.00
 create_mat_munu                      1 10.0     0.00     0.00     0.00     0.00
 write_dft_control                    1  3.0     0.00     0.00     0.00     0.00
 deallocate_blocks_v_kp               1 12.0     0.00     0.00     0.00     0.00
 mp_bcast_i3                          2 11.0     0.00     0.00     0.00     0.00
 write_orbpop                         1  8.0     0.00     0.00     0.00     0.00
 compute_max_radius                   1  6.0     0.00     0.00     0.00     0.00
 topology_connectivity_pack           1  3.0     0.00     0.00     0.00     0.00
 bs_env_release                       1  2.0     0.00     0.00     0.00     0.00
 kpoint_init_cell_index_simple        1  8.0     0.00     0.00     0.00     0.00
 kpoint_init_cell_index               1  9.0     0.00     0.00     0.00     0.00
 topology_generate_bond_2             1  5.0     0.00     0.00     0.00     0.00
 cube_transpose_1                     3 15.3     0.00     0.00     0.00     0.00
 pw_nn_compose_r                     26  3.0     0.00     0.00     0.00     0.00
 mp_sum_b                            88 11.5     0.00     0.00     0.00     0.00
 init_qs_kind_set                     1  3.0     0.00     0.00     0.00     0.00
 init_qs_kind                         2  4.0     0.00     0.00     0.00     0.00
 init_orb_basis_set                   4  5.0     0.00     0.00     0.00     0.00
 init_cphi_and_sphi                   4  6.0     0.00     0.00     0.00     0.00
 build_neighbor_lists_GW_3c_nl_       1 11.0     0.00     0.00     0.00     0.00
 mixing_allocate                      1  4.0     0.00     0.00     0.00     0.00
 get_rpa_minimax_coeff_larger_g       1 10.0     0.00     0.00     0.00     0.00
 metadyn_read                         1  2.0     0.00     0.00     0.00     0.00
 qs_scf_ensure_mos                    1  4.0     0.00     0.00     0.00     0.00
 mp_bcast_iv                        149  2.9     0.00     0.00     0.00     0.00
 build_neighbor_lists_GW_3c_nl_       1 11.0     0.00     0.00     0.00     0.00
 init_cube_info                       4  6.0     0.00     0.00     0.00     0.00
 scf_env_release                      1  2.0     0.00     0.00     0.00     0.00
 get_all_VBM_CBM_bandgaps             1 10.0     0.00     0.00     0.00     0.00
 check_scf_gw_level_ordering          1 11.0     0.00     0.00     0.00     0.00
 topology_connectivity_pack_5         1  4.0     0.00     0.00     0.00     0.00
 build_neighbor_lists_sab_core        1  6.0     0.00     0.00     0.00     0.00
 atom2d_build                         8  9.0     0.00     0.00     0.00     0.00
 linres_calculation_low               1  5.0     0.00     0.00     0.00     0.00
 read_smeagol_control                 1  3.0     0.00     0.00     0.00     0.00
 initialize_singleparticle_hami       1  3.0     0.00     0.00     0.00     0.00
 fft3d_s                              1  2.0     0.00     0.00     0.00     0.00
 scf_c_write_parameters               1  3.0     0.00     0.00     0.00     0.00
 mp_allgather_l                      13 10.9     0.00     0.00     0.00     0.00
 mp_rank_compare                     46 14.0     0.00     0.00     0.00     0.00
 mp_max_iv                            1 10.0     0.00     0.00     0.00     0.00
 compute_xkp                          3  9.3     0.00     0.00     0.00     0.00
 cp_fm_cleanup_copy_general           4  9.2     0.00     0.00     0.00     0.00
 wfi_create                           1  3.0     0.00     0.00     0.00     0.00
 topology_generate_bond_4             1  5.0     0.00     0.00     0.00     0.00
 print_Z_lP_progress                 20 10.0     0.00     0.00     0.00     0.00
 de_init_bs_env                       1  8.0     0.00     0.00     0.00     0.00
 cp_fm_scale                          2  6.5     0.00     0.00     0.00     0.00
 build_neighbor_lists_sab_all         1  6.0     0.00     0.00     0.00     0.00
 wfs_update                           1  4.0     0.00     0.00     0.00     0.00
 build_neighbor_lists_sab_orb         1  6.0     0.00     0.00     0.00     0.00
 distribute_molecules_1d              2  7.0     0.00     0.00     0.00     0.00
 build_neighbor_lists_sab_orb_s       1 11.0     0.00     0.00     0.00     0.00
 topology_generate_bond_1             1  5.0     0.00     0.00     0.00     0.00
 initialize_density_matrix            1  3.0     0.00     0.00     0.00     0.00
 mp_sum_partial_im                    2 11.0     0.00     0.00     0.00     0.00
 read_topology_section                1  3.0     0.00     0.00     0.00     0.00
 qs_rho_rebuild                       1  7.0     0.00     0.00     0.00     0.00
 load_balance_replicated              1  9.0     0.00     0.00     0.00     0.00
 kpoint_initialize                    1  2.0     0.00     0.00     0.00     0.00
 pw_create_r3d                       55 10.5     0.00     0.00     0.00     0.00
 init_ec_env                          1  2.0     0.00     0.00     0.00     0.00
 topology_set_atm_mass                1  4.0     0.00     0.00     0.00     0.00
 mp_max_r                             1  2.0     0.00     0.00     0.00     0.00
 get_basis_offsets                    1  9.0     0.00     0.00     0.00     0.00
 dbcsr_index_prune_deleted           24 12.3     0.00     0.00     0.00     0.00
 pw_create_c1d                       55 11.6     0.00     0.00     0.00     0.00
 set_parallelization_parameters       1  9.0     0.00     0.00     0.00     0.00
 topology_coordinate_pack             1  3.0     0.00     0.00     0.00     0.00
 check_generate_mol                   1  6.0     0.00     0.00     0.00     0.00
 deallocate_tmp                       1 11.0     0.00     0.00     0.00     0.00
 write_qs_kind_set                    1  3.0     0.00     0.00     0.00     0.00
 offload_create_buffer                8  7.8     0.00     0.00     0.00     0.00
 dbt_destroy                          5  3.0     0.00     0.00     0.00     0.00
 print_sphere_cutoff_table            1 10.0     0.00     0.00     0.00     0.00
 mp_sum_root_iv                       2 11.0     0.00     0.00     0.00     0.00
 topology_connectivity_pack_2         1  4.0     0.00     0.00     0.00     0.00
 set_RI_basis_function_indices        1  9.0     0.00     0.00     0.00     0.00
 rs_grid_create                       6  6.7     0.00     0.00     0.00     0.00
 init_scf_loop                        1  5.0     0.00     0.00     0.00     0.00
 topology_coordinate_pack_11          1  4.0     0.00     0.00     0.00     0.00
 topology_connectivity_pack_4         1  4.0     0.00     0.00     0.00     0.00
 pw_grid_allocate                     5  7.2     0.00     0.00     0.00     0.00
 topology_generate_onfo               1  4.0     0.00     0.00     0.00     0.00
 mp_cart_get                         90 13.8     0.00     0.00     0.00     0.00
 topology_connectivity_pack_14        1  4.0     0.00     0.00     0.00     0.00
 topology_connectivity_pack_9         1  4.0     0.00     0.00     0.00     0.00
 lpt_assign_atoms                     1 10.0     0.00     0.00     0.00     0.00
 distribution_3d_destroy              1  9.0     0.00     0.00     0.00     0.00
 create_local_fixd_list               1  4.0     0.00     0.00     0.00     0.00
 topology_generate_molecule           1  4.0     0.00     0.00     0.00     0.00
 make_basic_distribution              2  8.5     0.00     0.00     0.00     0.00
 mp_min_lv                            4  8.0     0.00     0.00     0.00     0.00
 topology_coordinate_pack_1           1  4.0     0.00     0.00     0.00     0.00
 topology_connectivity_pack_10        1  4.0     0.00     0.00     0.00     0.00
 setup_AO_and_RI_basis_set            1  8.0     0.00     0.00     0.00     0.00
 mp_mem_used_per_rank_GB              2  9.5     0.00     0.00     0.00     0.00
 dbt_distribution_destroy            10 11.5     0.00     0.00     0.00     0.00
 qs_scf_write_mos                     3  6.3     0.00     0.00     0.00     0.00
 initialize_maximum_timestep          1  3.0     0.00     0.00     0.00     0.00
 topology_connectivity_pack_13        1  4.0     0.00     0.00     0.00     0.00
 topology_connectivity_pack_11        1  4.0     0.00     0.00     0.00     0.00
 mp_bcast_im                          8 10.2     0.00     0.00     0.00     0.00
 topology_connectivity_pack_12        1  4.0     0.00     0.00     0.00     0.00
 topology_molecules_check             1  4.0     0.00     0.00     0.00     0.00
 topology_connectivity_pack_6         1  4.0     0.00     0.00     0.00     0.00
 mp_max_lv                            4  8.0     0.00     0.00     0.00     0.00
 write_molecule_kind_set              1  3.0     0.00     0.00     0.00     0.00
 cp_result_value_p_reallocate         4  7.8     0.00     0.00     0.00     0.00
 print_header_and_input_paramet       1  8.0     0.00     0.00     0.00     0.00
 mp_cart_coords                     320  9.8     0.00     0.00     0.00     0.00
 spatial_atom_order                   1  9.0     0.00     0.00     0.00     0.00
 dbcsr_verify_matrix                  3  9.0     0.00     0.00     0.00     0.00
 sort_neighbor_lists                  1  7.0     0.00     0.00     0.00     0.00
 topology_generate_bond_6             1  5.0     0.00     0.00     0.00     0.00
 xc_libxc_check_functional            2  4.0     0.00     0.00     0.00     0.00
 qs_scf_initial_info                  1  5.0     0.00     0.00     0.00     0.00
 fix_atom_control                     1  3.0     0.00     0.00     0.00     0.00
 resolve_grid_panels                  4  9.2     0.00     0.00     0.00     0.00
 cp_result_value_copy                 6  8.5     0.00     0.00     0.00     0.00
 dbcsr_make_dists_dense               3 10.0     0.00     0.00     0.00     0.00
 reallocate_ft_traces                 1  4.0     0.00     0.00     0.00     0.00
 scf_env_cleanup                      1  4.0     0.00     0.00     0.00     0.00
 mp_sum_lm3                           1  2.0     0.00     0.00     0.00     0.00
 set_mo_occupation_2                  3  7.0     0.00     0.00     0.00     0.00
 mp_min_i                             2  6.0     0.00     0.00     0.00     0.00
 write_qs_control                     1  3.0     0.00     0.00     0.00     0.00
 set_mo_occupation_1                  4  7.5     0.00     0.00     0.00     0.00
 read_qs_section                      1  3.0     0.00     0.00     0.00     0.00
 create_destination_list              2 10.0     0.00     0.00     0.00     0.00
 check_cp2k_input                     1  2.0     0.00     0.00     0.00     0.00
 qs_scf_loop_print                    2  6.0     0.00     0.00     0.00     0.00
 mp_dims_create                       4 10.5     0.00     0.00     0.00     0.00
 get_VBM_CBM_bandgaps                 3 11.0     0.00     0.00     0.00     0.00
 mp_cart_rank                        72 13.0     0.00     0.00     0.00     0.00
 precompute_ri_rs_radii               1  8.0     0.00     0.00     0.00     0.00
 topology_coordinate_pack_3           1  4.0     0.00     0.00     0.00     0.00
 print_gw_rirs_input                  1  9.0     0.00     0.00     0.00     0.00
 dump_info_core_hamiltonian           1  6.0     0.00     0.00     0.00     0.00
 read_tddfpt2_control                 1  3.0     0.00     0.00     0.00     0.00
 mp_max_rv                            1  2.0     0.00     0.00     0.00     0.00
 read_bandstructure_input_param       1  7.0     0.00     0.00     0.00     0.00
 topology_constraint_pack             1  3.0     0.00     0.00     0.00     0.00
 wfi_extrapolate                      1  6.0     0.00     0.00     0.00     0.00
 atom2d_cleanup                       8  9.0     0.00     0.00     0.00     0.00
 balance_global_list                  2 11.0     0.00     0.00     0.00     0.00
 init_evGW0                           1  9.0     0.00     0.00     0.00     0.00
 mp_sum_r                             1  2.0     0.00     0.00     0.00     0.00
 determine_active_mo_window           1  3.0     0.00     0.00     0.00     0.00
 write_band_edges                     3  7.0     0.00     0.00     0.00     0.00
 mp_sum_rv                            1  2.0     0.00     0.00     0.00     0.00
 setup_kpoints_chi_eps_W              1  9.0     0.00     0.00     0.00     0.00
 mp_min_rv                            1  2.0     0.00     0.00     0.00     0.00
 qs_efield_local_operator             3  9.3     0.00     0.00     0.00     0.00
 topology_connectivity_pack_8         1  4.0     0.00     0.00     0.00     0.00
 cp_fm_redistribute_end               6  9.3     0.00     0.00     0.00     0.00
 offload_free_buffer                  8  3.5     0.00     0.00     0.00     0.00
 check_diag                           6  8.3     0.00     0.00     0.00     0.00
 qs_scf_post_elf                      1  5.0     0.00     0.00     0.00     0.00
 ec_env_release                       1  2.0     0.00     0.00     0.00     0.00
 print_header                         1  7.0     0.00     0.00     0.00     0.00
 topology_constraint_pack_1           1  4.0     0.00     0.00     0.00     0.00
 mp_sum_dm3                           1  3.0     0.00     0.00     0.00     0.00
 read_mgrid_section                   1  3.0     0.00     0.00     0.00     0.00
 qs_ks_did_change                     4  6.0     0.00     0.00     0.00     0.00
 cp_result_value_release             10  6.3     0.00     0.00     0.00     0.00
 allocate_GW_eigenvalues              1  8.0     0.00     0.00     0.00     0.00
 scf_env_create                       1  4.0     0.00     0.00     0.00     0.00
 set_heuristic_parameters             2  7.5     0.00     0.00     0.00     0.00
 topology_coordinate_pack_6           1  4.0     0.00     0.00     0.00     0.00
 write_ks_matrix_csr                  1  7.0     0.00     0.00     0.00     0.00
 get_exp_minimax_coeff_gw             1 10.0     0.00     0.00     0.00     0.00
 topology_connectivity_pack_3         1  4.0     0.00     0.00     0.00     0.00
 topology_generate_molecule_PAR       1  5.0     0.00     0.00     0.00     0.00
 qs_scf_post_transport                1  7.0     0.00     0.00     0.00     0.00
 calculate_ecore_self                 1  5.0     0.00     0.00     0.00     0.00
 check_for_derivatives                2 11.0     0.00     0.00     0.00     0.00
 qs_scf_post_ps_implicit              1  7.0     0.00     0.00     0.00     0.00
 wannier90_interface                  1  5.0     0.00     0.00     0.00     0.00
 topology_coordinate_pack_5           1  4.0     0.00     0.00     0.00     0.00
 topology_coordinate_pack_7a          1  4.0     0.00     0.00     0.00     0.00
 read_rirs_input                      1  9.0     0.00     0.00     0.00     0.00
 topology_connectivity_pack_7         1  4.0     0.00     0.00     0.00     0.00
 fist_neighbor_init                   1  8.0     0.00     0.00     0.00     0.00
 topology_connectivity_pack_1         1  4.0     0.00     0.00     0.00     0.00
 grid_create_basis_set                2  8.0     0.00     0.00     0.00     0.00
 topology_coordinate_pack_7b          1  4.0     0.00     0.00     0.00     0.00
 topology_constraint_pack_5           1  4.0     0.00     0.00     0.00     0.00
 cp_result_release                    1  2.0     0.00     0.00     0.00     0.00
 reset_and_clean_bs_env               1  9.0     0.00     0.00     0.00     0.00
 write_symmetry                       1  3.0     0.00     0.00     0.00     0.00
 mp_isend_im2                         8 10.2     0.00     0.00     0.00     0.00
 transport_current                    1  8.0     0.00     0.00     0.00     0.00
 cp_ddapc_apply_RF                    3 10.3     0.00     0.00     0.00     0.00
 grid_free_basis_set                  2  2.0     0.00     0.00     0.00     0.00
 read_binary_coordinates              1  3.0     0.00     0.00     0.00     0.00
 qs_scf_post_kubo_transport           1  7.0     0.00     0.00     0.00     0.00
 print_atomic_charges                 3 13.3     0.00     0.00     0.00     0.00
 topology_generate_bond_7             1  5.0     0.00     0.00     0.00     0.00
 read_evgw0_input                     1  9.0     0.00     0.00     0.00     0.00
 external_c_potential                 1  5.0     0.00     0.00     0.00     0.00
 write_structure_data                 1  3.0     0.00     0.00     0.00     0.00
 topology_generate_impr               1  4.0     0.00     0.00     0.00     0.00
 write_gto_basis_sets                 1  3.0     0.00     0.00     0.00     0.00
 get_factor_and_xyz_min_max           1 12.0     0.00     0.00     0.00     0.00
 plan_grid_panels                     1 10.0     0.00     0.00     0.00     0.00
 print_cutoff_radius_input            4 10.0     0.00     0.00     0.00     0.00
 rt_bse_ri_rs_ensure_grid             2  5.0     0.00     0.00     0.00     0.00
 get_i_j_atoms                        2 10.0     0.00     0.00     0.00     0.00
 cp_result_value_create              10  8.6     0.00     0.00     0.00     0.00
 allocate_qs_energy                   1  3.0     0.00     0.00     0.00     0.00
 write_s_matrix_csr                   1  7.0     0.00     0.00     0.00     0.00
 mp_irecv_im2                         8 10.2     0.00     0.00     0.00     0.00
 qs_efield_berry_phase                3  9.3     0.00     0.00     0.00     0.00
 write_hcore_matrix_csr               1  7.0     0.00     0.00     0.00     0.00
 write_adjacency_matrix               1  7.0     0.00     0.00     0.00     0.00
 qs_scf_post_moments                  1  5.0     0.00     0.00     0.00     0.00
 qs_scf_post_xray                     1  5.0     0.00     0.00     0.00     0.00
 qs_scf_post_efg                      1  5.0     0.00     0.00     0.00     0.00
 handle_ext_restart                   1  3.0     0.00     0.00     0.00     0.00
 write_dm_binary_restart              1  7.0     0.00     0.00     0.00     0.00
 write_p_matrix_csr                   1  7.0     0.00     0.00     0.00     0.00
 qs_scf_post_molopt                   1  5.0     0.00     0.00     0.00     0.00
 qs_scf_post_epr                      1  5.0     0.00     0.00     0.00     0.00
 qs_scf_post_local_energy             1  7.0     0.00     0.00     0.00     0.00
 qs_scf_post_local_stress             1  7.0     0.00     0.00     0.00     0.00
 cp_result_value_init                 4  7.8     0.00     0.00     0.00     0.00
 excited_state_energy                 1  4.0     0.00     0.00     0.00     0.00
 topology_coordinate_pack_89          1  4.0     0.00     0.00     0.00     0.00
 topology_muc                         1  4.0     0.00     0.00     0.00     0.00
 ps_implicit_release                  2  4.0     0.00     0.00     0.00     0.00
 write_mos_molden                     1  7.0     0.00     0.00     0.00     0.00
 calculate_ecore_efield               1  5.0     0.00     0.00     0.00     0.00
 add_external_potential               1  3.0     0.00     0.00     0.00     0.00
 square_mesh                          2 11.0     0.00     0.00     0.00     0.00
 qs_scf_post_et                       1  5.0     0.00     0.00     0.00     0.00
 tddfpt2_control_create               2  3.0     0.00     0.00     0.00     0.00
 read_auto_ri_input                   1  9.0     0.00     0.00     0.00     0.00
 wfn_mix                              1  5.0     0.00     0.00     0.00     0.00
 tddfpt2_control_release              2  2.0     0.00     0.00     0.00     0.00
 topology_connectivity_pack_1.1       1  4.0     0.00     0.00     0.00     0.00
 external_e_potential                 1  5.0     0.00     0.00     0.00     0.00
 topology_connectivity_pack_13_       1  4.0     0.00     0.00     0.00     0.00
 compute_matrix_w                     1  4.0     0.00     0.00     0.00     0.00
 smeagol_control_create               1  3.0     0.00     0.00     0.00     0.00
 topology_constraint_pack_7           1  4.0     0.00     0.00     0.00     0.00
 auto_ri_release                      1  3.0     0.00     0.00     0.00     0.00
 topology_connectivity_pack_11_       1  4.0     0.00     0.00     0.00     0.00
 topology_connectivity_pack_14_       1  4.0     0.00     0.00     0.00     0.00
 topology_generate_bend               1  4.0     0.00     0.00     0.00     0.00
 external_read_density                1  5.0     0.00     0.00     0.00     0.00
 fp_env_read                          1  2.0     0.00     0.00     0.00     0.00
 topology_connectivity_pack_12_       1  4.0     0.00     0.00     0.00     0.00
 rescale_forces                       1  3.0     0.00     0.00     0.00     0.00
 check_qs_kind_set                    1  3.0     0.00     0.00     0.00     0.00
 smeagol_control_release              1  2.0     0.00     0.00     0.00     0.00
 topology_coordinate_pack_4           1  4.0     0.00     0.00     0.00     0.00
 topology_constraint_pack_2           1  4.0     0.00     0.00     0.00     0.00
 topology_constraint_pack_6           1  4.0     0.00     0.00     0.00     0.00
 pw_env_create                        1  5.0     0.00     0.00     0.00     0.00
 topology_coordinate_pack_10          1  4.0     0.00     0.00     0.00     0.00
 topology_generate_dihe               1  4.0     0.00     0.00     0.00     0.00
 cp_result_create                     1  2.0     0.00     0.00     0.00     0.00
 init_harris_env                      1  3.0     0.00     0.00     0.00     0.00
 topology_coordinate_pack_2           1  4.0     0.00     0.00     0.00     0.00
 topology_constraint_pack_3           1  4.0     0.00     0.00     0.00     0.00
 cleanup_scf_loop                     1  6.0     0.00     0.00     0.00     0.00
 fp_env_write                         1  2.0     0.00     0.00     0.00     0.00
 topology_generate_ub                 1  4.0     0.00     0.00     0.00     0.00
 topology_constraint_pack_4           1  4.0     0.00     0.00     0.00     0.00
 -------------------------------------------------------------------------------

 The number of warnings for this run is : 2
 
 -------------------------------------------------------------------------------
  **** **** ******  **  PROGRAM ENDED AT                 2026-09-23 14:19:01.078
 ***** ** ***  *** **   PROGRAM RAN ON                                 n2lcn0130
 **    ****   ******    PROGRAM RAN BY                                  metdyn07
 ***** **    ** ** **   PROGRAM PROCESS ID                                527860
  **** **  *******  **  PROGRAM STOPPED IN /scratch/hpc-prf-metdyn/metdyn07_Rita
                                           j/otus/max-nanographene/64
